 # Version information for this restart file 
 # current date 2024-11-30 01:31:44.595
 # current working dir /scratch/hz3883/Week12-IntroAIMD/Runs/Water
 # Program compiled at                              Sat Dec 12 18:27:15 EST 2020
 # Program compiled on                                         cs001.nyu.cluster
 # Program compiled for                                                nyu-intel
 # Source code revision number                                       git:8c64c6e
 &GLOBAL
   PRINT_LEVEL  LOW
   PROJECT_NAME water_aimd_1ps
   RUN_TYPE  MD
   WALLTIME 21600
 &END GLOBAL
 &MOTION
   &MD
     ENSEMBLE  NVT
     STEPS  2000
     TIMESTEP     4.9999999999999994E-01
     STEP_START_VAL  1998
     TIME_START_VAL     9.9899999999998238E+02
     ECONS_START_VAL    -1.1023558357480229E+03
     TEMPERATURE     3.0000000000000000E+02
     &THERMOSTAT
       TYPE  GLE
       REGION  MASSIVE
       &GLE
         NDIM  5
         A_SCALE     1.0000000000000000E+00
         A_LIST     1.8595758612559999E+02    2.7263853498399998E-01    1.1526100454610001E+01   -3.6414578262600003E+01 \
             2.3173375816020001E+02
         A_LIST    -2.7809524712060002E-01    8.5951591808710006E-05    7.2189048017650004E-01   -1.9844539343859999E-01 \
             4.2409257583420001E-01
         A_LIST    -1.4825808131210000E+01   -7.2189048017650004E-01    1.3590902121280000E+00    5.1498896280349999E+00 \
            -9.9949268450990001E+00
         A_LIST    -1.0372189126880000E+01    1.9844539343859999E-01   -5.1498896280349999E+00    2.6661910891169999E+01 \
             1.1507715495310000E+01
         A_LIST     2.1801346360420001E+02   -4.2409257583420001E-01    9.9949268450990001E+00   -1.1507715495310000E+01 \
             3.0958394565589998E+02
         &THERMOSTAT_ENERGY
              -1.9654402156223114E-03
              -1.8876054705350214E-03
              -5.8599396843111485E-04
               7.4279333785476336E-03
              -1.2465531798633528E-02
               1.6466605816310275E-03
              -7.1381372738399851E-04
              -6.0462333113844137E-03
               1.7808705487267623E-02
               3.0442989247591707E-03
               1.2775350455250769E-02
               7.4497859506352556E-04
              -7.6063547172361880E-03
              -6.2222230696326588E-03
               2.0664156421244486E-04
              -8.0669255488814984E-03
               1.8121433618674715E-02
              -2.6945951356949858E-03
               7.2509692439461319E-03
              -6.1566305120023170E-03
              -3.0369586040414559E-03
               4.5309998836152859E-03
              -1.0818638901456637E-02
              -4.3000488071673467E-03
               3.2469398253520531E-03
               3.9226287612976005E-03
               3.4483220101218632E-03
               1.2168293886703405E-03
               1.1473505288858526E-02
               2.2695496613153029E-03
               2.5407539492748057E-03
              -3.8893649188455745E-03
               3.0699278067206869E-03
               2.5148406943392046E-03
              -1.3900876358198122E-02
               1.5139148841324253E-02
               2.9292646694739862E-03
              -3.5433297714840195E-03
               1.5097999955653921E-03
               6.6090072837953857E-03
              -5.5144344590334236E-03
              -8.7622919958391943E-03
               9.0913290583947842E-03
               4.5202718117451531E-03
              -1.7776564221099642E-03
               3.2699099869640882E-03
              -9.0381595093984334E-04
               7.0550649332435803E-03
               5.9359442760269915E-03
               1.5781146901489879E-03
              -3.7364796022098050E-03
               2.8963669314544089E-03
              -8.0534737878065546E-03
              -7.0911478377813685E-04
              -5.9294191113255408E-03
               3.9011721852261708E-03
              -3.9362471756340025E-03
              -4.6317640310731328E-03
              -6.4024556930832683E-04
               1.9324038561992628E-02
               2.2476985058852302E-03
              -8.8357732539629669E-03
               1.7260985314480514E-02
              -4.6605248455280426E-03
               4.7661580781937071E-03
               2.3457626055329770E-03
              -9.5112360313516740E-03
               5.3935957253561312E-03
               2.0376912752130286E-02
               1.5703076557301728E-03
              -2.0983941782649613E-03
              -1.4116487409698798E-02
              -1.7553406366873450E-03
               2.4782678956778888E-03
              -3.1221307711530458E-04
              -9.7230199652843293E-03
               2.4447611445903880E-03
               3.9559699282374784E-03
               7.0553158419311788E-03
              -9.1438010440608002E-03
               2.0488597563354149E-02
              -4.2274092132594688E-03
               2.8199969321951140E-03
               1.2257622668357584E-03
              -1.6660100833242651E-03
               9.4788335895383616E-03
               3.1939750425337642E-03
              -7.5759511707450614E-03
               3.2647735672383946E-03
               5.0651223928917743E-04
               3.8006730235600845E-03
              -9.3713966516490391E-03
               1.3030816161184967E-03
              -7.8666115962823750E-03
              -7.7337765677341170E-03
               3.9241187915613198E-03
               1.0346742696886523E-02
               6.6501279103149344E-04
               5.0889348403075777E-03
              -7.0035987251742854E-04
              -1.3459598948133450E-03
              -9.9798501569700448E-03
               4.1940674215138682E-03
              -3.3876125673735057E-03
              -1.0151468740478078E-03
               1.4369103033122938E-02
               8.3449831501651334E-04
              -4.4563076538085417E-03
               2.4608224107063631E-03
              -6.0391283337288921E-03
               2.8688783228425427E-03
               6.3859586111255440E-03
              -3.2699688327751456E-03
              -6.7506050655201820E-03
               8.8796616406044571E-03
               6.0310389053234003E-03
              -1.5590571672452817E-02
               6.0779823547453720E-03
               4.2912200001728748E-03
               7.6572308116417808E-03
               8.7947541331648248E-03
              -4.4125133343506390E-03
              -1.6677941414756142E-03
               5.6129978154221462E-03
              -9.4042032970821348E-03
              -2.1531587345246187E-03
               3.4748762619428524E-03
               8.1292430532983772E-04
              -3.2999304501816827E-03
               5.1436958670299298E-03
              -4.1154745318736268E-03
               5.3727329249394712E-03
              -1.2064140923994493E-02
               6.5129610679556058E-03
               7.9211400304827258E-04
              -3.4679182860210560E-04
              -4.5111475833441621E-03
              -5.8899676167639978E-03
               2.5878116174589340E-03
              -2.5904759336195251E-03
               2.9486426797429330E-03
              -2.8205576669963232E-03
               1.6111275598118400E-02
              -4.9364856463427545E-03
              -6.8445236612787912E-03
              -8.4402055354432779E-04
               6.0139629809479464E-03
               1.0552499818673105E-02
               3.1140709019386640E-03
              -5.0663182156771664E-03
              -1.6912241214973058E-02
               7.5235637550755737E-03
              -4.0393567717954618E-04
              -6.0342747538301694E-03
               1.0064795634751971E-02
              -1.7877580738098744E-03
              -1.3110844559110571E-03
               5.4309619112018342E-03
              -1.9182877233291360E-03
               1.5074160072634474E-03
              -1.0563297594464605E-02
              -8.7575944396935893E-03
              -9.7314218000983037E-04
               1.5331404561339933E-04
               8.1370271765569754E-03
               1.1521156969343587E-02
               2.7871153325373490E-03
              -2.0611996831792680E-02
              -6.5588511042465143E-03
               1.3380826367022763E-02
              -4.2603587519513151E-03
              -3.4472419918817783E-03
               1.8760605817949427E-03
              -5.5868869865988852E-03
              -3.9826931191186054E-03
               1.5461054732132944E-03
              -7.8912836981430180E-03
               2.2887115819731022E-03
               4.1524873604078458E-03
               8.2066732950125988E-03
              -3.2663273739629208E-03
               5.7049110415199032E-04
               6.9602134506701538E-03
              -1.9523827139709789E-02
               1.1404709237171922E-02
               1.4314945910363871E-03
              -4.2699778166778134E-03
              -1.1116693124599718E-03
              -1.9037168086436197E-03
              -4.2834304669913287E-04
               4.0278556247881851E-03
              -1.5010318421523579E-04
              -1.2206791599516278E-02
               8.6464484711204423E-03
               9.6370888441480018E-03
              -8.1228564188978707E-03
              -7.5825268804664246E-03
               7.6853563940987302E-04
              -4.5323924061386892E-03
              -4.6554368621431440E-03
              -1.7388982047363338E-03
              -2.1160873814991105E-03
               1.7029644310291824E-02
              -4.3295522341791261E-03
              -7.2227892998378788E-03
              -7.0574732002018879E-04
              -3.8386759492856784E-03
              -9.8870103442134211E-04
              -1.6841858952423518E-03
              -1.9438994996272938E-04
               1.3274195022361381E-02
              -7.8468753371304777E-03
               1.0768615302836787E-02
              -5.9940088853553284E-03
               5.7278249329426045E-03
              -2.4076861620989623E-03
              -1.5066994450662816E-02
               9.8648405472019120E-03
               3.1420701237789006E-03
              -1.7327377612856298E-02
              -4.1391593727526967E-03
               6.9706379946517629E-04
              -8.9731549991299325E-04
               1.7382218878011026E-02
              -2.7008359294826553E-03
               1.5155763415655140E-03
               2.6082129096742031E-03
               5.8778422407173322E-04
               4.9346194342417080E-03
              -3.5134257099501656E-03
              -1.2285302821208738E-02
              -1.7621838547765807E-03
               1.4200055871683865E-02
              -4.9768111430068826E-03
               4.4111314869436198E-04
               3.5648756299700838E-03
               2.0106661712170353E-04
              -2.7821253173864247E-03
               1.2054283157487808E-02
               7.3539893458273130E-03
              -5.3590790796695063E-03
              -8.1727757328857557E-03
              -5.4282327647530446E-04
              -3.5059090996352590E-03
               3.3236858636436989E-03
               3.5026416601488101E-03
               5.7078123653776288E-03
              -3.8993184015366873E-03
               7.4594609372459486E-04
               2.8176796306399058E-03
               7.0210841544579398E-03
              -1.2140873384513752E-02
              -7.7790050935754073E-03
              -7.1027520211145931E-03
               6.2135617873643155E-03
              -8.4752848650233110E-04
               7.6987298803909959E-03
              -3.9568034945114241E-03
               1.6050728461724780E-02
              -2.1514896622788937E-02
               2.1779463280569362E-02
               1.8834082869110093E-03
               1.8287045848022286E-03
               1.4473630656752215E-04
               4.6649394711050741E-03
              -6.8563400233436385E-03
              -3.5355408807685273E-04
              -5.7224915287196710E-03
               7.3982026795522363E-04
               7.5989977448887337E-03
              -1.9947124845223615E-03
              -4.7464117194621677E-03
              -1.1481082133766025E-03
               1.1324749344000696E-02
               3.8339542645070479E-03
               2.1238176988035299E-03
              -2.8271922261698442E-02
               2.4057446411367020E-02
              -6.4901357947021801E-03
               7.2044634335134998E-03
              -7.4855102327654691E-03
               1.2929191096287544E-03
               8.0203195936374445E-03
              -6.1882479082905860E-03
              -4.0016058054015858E-03
               4.8129594165445657E-03
              -4.3476147677331791E-04
              -1.0589020765272556E-02
              -2.1690692901823877E-03
              -6.9787497640290072E-04
              -2.9706746200199256E-03
               1.4840050157079974E-02
              -1.9478276773973575E-03
              -6.7626362685326326E-03
               1.8773770327750775E-03
               1.1277674417156098E-02
              -1.3134842008971871E-02
              -9.6192307776961339E-04
              -4.7616021285087160E-03
               4.0825094904604724E-04
              -1.0978380460398653E-02
               3.5434104927665943E-03
               7.9330087403809476E-03
               1.0259066292634140E-03
               8.7154098117633236E-03
              -1.1096304379174828E-02
              -2.5616626674368646E-03
              -1.4096431458719293E-03
              -2.2716765304243445E-03
               1.5648912876008503E-02
              -6.8297469514468729E-03
              -6.4605457174834431E-03
              -3.5671150948093345E-03
               1.4569727929023975E-02
               1.4402034760707424E-03
               1.0575220709386287E-02
               2.6262083751365552E-03
               3.3253011100795142E-03
              -7.6097020361727595E-03
               1.2056173963811560E-03
               1.1678854300389297E-02
              -1.4694366965976782E-02
              -1.4772725498318935E-02
               1.6749586238910472E-02
              -7.7192449091498163E-03
               1.0363287628875135E-02
               8.4415420003874236E-04
               4.1517625544820434E-03
              -3.8884047704476833E-03
              -1.0089677246278551E-03
              -1.2420270283985176E-03
              -1.4991702046843004E-02
               6.7437066890358530E-03
              -2.7354728724962155E-03
               5.5364416386226014E-03
               5.1867584547478562E-03
               1.3476809480311481E-02
               2.0192163038881658E-03
              -1.2642349203743353E-02
               1.2128233822581311E-02
               3.5074079131492504E-03
              -8.1463695091731157E-03
               3.1270430073923644E-03
              -7.0736292667079792E-03
              -1.0723234400530496E-03
              -5.4470456206958621E-03
               6.6278748806108294E-04
               8.3442440498309508E-04
               9.4620092266251756E-03
               2.4331985592970047E-03
               8.8846362609559207E-04
               4.3824642680311294E-03
              -7.3635078821675075E-03
              -2.8113927434198467E-03
              -1.5331693599698753E-02
               1.3529292967030895E-02
               3.6706402645649691E-03
              -8.4941847100040626E-03
              -1.3089661399762422E-02
               1.5081293102425022E-02
               2.5428125266096181E-03
              -4.0462040993645421E-03
              -1.1599040437570256E-02
              -5.0650230191281133E-03
              -3.5213984280087185E-03
               1.7214666005949026E-02
               1.1260989756499078E-02
              -5.4833527887612902E-03
              -1.1545282259326946E-02
              -3.8927537143394653E-03
               2.4731599170224857E-03
              -2.6073620568038500E-03
               3.8615724563784157E-03
               8.6719547694882899E-03
              -5.0261654920785419E-03
              -1.2412301182410429E-03
               5.6113254901655682E-03
              -8.8142727614746556E-03
              -2.8550122737121125E-03
               6.1813100671655134E-03
               2.1535488729087587E-03
              -1.7430118492347615E-03
               1.9724329875970920E-02
              -6.1919900216597309E-03
              -2.1777270515107194E-02
               8.1509721099080543E-03
               2.0839848526659501E-03
              -1.1180487027315392E-03
              -4.9408630774750951E-03
              -4.6502547803921681E-04
              -9.4486266169522704E-03
               1.8743138838157439E-02
              -2.2840865250149172E-03
              -7.0179159073365197E-03
              -2.4055763157144676E-03
               1.2620424845270854E-03
              -7.0643119418193128E-03
               8.5136630536374047E-03
               5.2330293736391319E-03
              -2.8268549506274932E-02
               1.2606055088715540E-02
               7.1103445650021252E-03
              -7.6414453850219364E-03
               6.4636963195185129E-03
               2.1273623078865895E-02
              -4.1958677201381925E-04
               6.5595535072094022E-03
               4.5068845460388644E-03
              -4.6519351171489315E-04
               3.0264549354433478E-03
               8.6147270349682509E-04
               1.9420328707254241E-03
              -1.3344632451708293E-02
               6.2331692447180681E-03
              -6.6820808020326980E-03
              -2.2255842427646073E-04
               2.4767373869301326E-03
              -2.5549709229927544E-03
               3.2539237720414127E-04
               4.3864709479392357E-03
               1.4695739491397031E-04
              -3.0697965955361799E-03
               2.2892014710223334E-03
               6.9821554448652972E-04
               2.1839791681176213E-03
               1.5562854567876389E-03
              -1.0193454488276970E-02
               6.3792572584223115E-03
              -6.7850546059954001E-03
               4.2177992047110731E-03
               9.4304776674996506E-03
              -9.6593538847148403E-03
              -5.1391568680622009E-03
              -6.9207781665349298E-03
               6.7565604728517690E-03
              -1.2216876020047771E-02
              -5.4734881348680146E-03
               1.0768810646569245E-02
              -7.4604231708150781E-03
               8.9717483346209576E-03
              -9.2671137408587168E-03
              -1.4737928033430582E-02
              -1.9431831251301413E-03
               5.5381725049569079E-03
              -9.8482365028663976E-03
              -7.3370575333902765E-03
               4.3337535303955947E-03
               7.1011587886497833E-03
               1.2408925059349100E-02
              -6.7623361392950415E-03
              -5.0824367536618561E-03
              -6.3266046247093654E-03
               2.8649308940368167E-03
               7.5524809764459574E-03
              -1.1881160980101665E-02
              -8.1023954771914548E-03
               2.1897873530254644E-02
               4.1210974682469358E-03
              -1.5428834008607560E-02
              -6.2344021612805367E-03
               4.5394999645188882E-03
              -3.3132772826192113E-03
               4.4931258518787816E-03
              -1.3410058379412243E-04
               5.6191302015706421E-05
               7.7710100894647898E-03
              -1.1507273107980668E-02
               3.4693591123933017E-03
              -4.0210741832852658E-03
               1.2570102417543505E-02
               1.9461539266245613E-03
               7.0612343955103306E-03
              -1.3717495120131166E-03
              -9.4770088735668867E-04
              -6.6433458737271385E-03
               7.6305607280911349E-03
               8.0009750230839762E-03
               2.9090143443345198E-03
              -4.0477682858306432E-03
               7.0083971406727653E-04
              -5.9632695802547559E-03
               5.1048618155039392E-03
               1.2920341185308516E-03
               9.9427720135321744E-03
              -7.2603383979387131E-03
              -2.4849734891384057E-03
              -3.3741133672935942E-03
              -2.0543763043818844E-03
              -2.8731407988298241E-03
              -1.5346364404761799E-03
              -1.6479447606649732E-03
               3.4365946416901388E-03
               8.1603146554967768E-03
               5.0532786215375953E-03
              -1.3275511760758429E-02
               1.5104026653533164E-03
               1.2885418991131757E-03
               1.7380941734685426E-03
               1.4158341848891061E-03
               7.4010977249864950E-03
               8.9784308962334136E-04
               2.2919474619027291E-03
              -1.0559894906577501E-02
              -6.7292820257359390E-03
               4.9090468772568091E-03
              -9.7009261630852973E-03
               1.9217701360584210E-03
               8.0912938580136342E-04
              -2.0269630846374174E-03
               1.1845838214507283E-03
              -1.4521213226114402E-03
               8.0998796707321876E-03
              -2.7726278093764679E-03
              -2.6407101157522898E-03
               1.3781181011633895E-03
              -1.1203028657162002E-03
              -6.3950151514450167E-03
              -4.5341826304433541E-03
               7.6656618521997212E-03
               5.1936554508621975E-03
               3.4890856782837838E-04
              -1.1556473855189780E-02
              -1.3070467102202062E-02
               1.5299041943604900E-02
               3.7314937065120054E-03
               6.0772501635661383E-03
              -3.8777468118103928E-03
              -1.0916030970709322E-02
               6.0899736232308934E-03
              -1.8612549397963346E-03
              -1.3476691751267682E-02
              -3.5362285359997947E-03
              -8.9184572721472365E-03
               1.8693199222686613E-03
              -1.7874223971025007E-03
               1.1491674146513163E-02
               5.1528193541876448E-03
              -7.8096364739983228E-04
              -8.2543055550989789E-03
              -6.1761021028882779E-04
               8.5644723985615716E-04
               2.0991728101980331E-03
               2.0391187211777186E-03
               5.0796384210749284E-03
              -5.3059312308953626E-03
               8.4578058446532454E-03
               7.4751678320009443E-03
               5.9094604596232364E-04
              -2.0459091285689028E-03
               1.4745445565999692E-04
              -1.4221877824035175E-03
              -3.4665582084529871E-04
               5.6392646212383053E-03
               1.4023829246980039E-02
              -1.1711404424666038E-02
              -1.1917419371377249E-02
              -5.0830574075305546E-03
               1.1276105019313393E-02
              -2.2815308649922418E-03
               2.1773861372340348E-03
              -7.8130855085996862E-04
              -8.5411098922162209E-03
               1.1499679172514132E-02
              -2.2891799614798819E-03
              -3.6086240805662147E-03
               1.3062987157863477E-02
               6.2523967830597797E-03
               1.3872812581952826E-04
               7.3249896714723470E-03
              -5.7502977577475528E-03
              -1.1938046819575740E-02
               3.7407422595508492E-03
              -2.5409856057928312E-03
               1.6612333684097578E-03
              -2.9869925837503874E-03
              -2.8521495881575860E-03
         &END THERMOSTAT_ENERGY
         &RNG_INIT
Wiener process for Thermostat # 1        1 F T T  -1.5601997779545997E+00        4027757407.0        1559045809.0        3403552754.0        1703120254.0         453778739.0        2861026355.0             12345.0             12345.0             12345.0             12345.0             12345.0             12345.0             12345.0             12345.0             12345.0             12345.0             12345.0             12345.0
Wiener process for Thermostat # 2        1 F T T  -4.0112764818655514E-02        3838101567.0        1430396723.0        1556923290.0        2889325561.0         607612135.0        3761282217.0        3692455944.0        1366884236.0        2968912127.0         335948734.0        4161675175.0         475798818.0        3692455944.0        1366884236.0        2968912127.0         335948734.0        4161675175.0         475798818.0
Wiener process for Thermostat # 3        1 F T T  -2.7485675335982579E-01         482699311.0        2506409672.0        1202736307.0        1073196783.0        1141297417.0        2856513754.0        1015873554.0        1310354410.0        2249465273.0         994084013.0        2912484720.0        3876682925.0        1015873554.0        1310354410.0        2249465273.0         994084013.0        2912484720.0        3876682925.0
Wiener process for Thermostat # 4        1 F T T  -9.8957058820594379E-01        3129827523.0        3549124345.0        1353678049.0        1344233659.0        2578763699.0        1106953444.0        2338701263.0        1119171942.0        2570676563.0         317077452.0        3194180850.0         618832124.0        2338701263.0        1119171942.0        2570676563.0         317077452.0        3194180850.0         618832124.0
Wiener process for Thermostat # 5        1 F T T   8.1743834600370391E-01         587879607.0         702838090.0         820286405.0        1159088393.0        1840431053.0        2379049004.0        1597262096.0        3906379055.0        3312112953.0        1016013135.0        4099474108.0         275305423.0        1597262096.0        3906379055.0        3312112953.0        1016013135.0        4099474108.0         275305423.0
Wiener process for Thermostat # 6        1 F T T  -4.6635220676026440E-01        1255338812.0        2941627828.0        2767710176.0        1701464963.0        2824905014.0        2257709657.0          97147054.0        3131372450.0         829345164.0        3691032523.0        3006063034.0        4259826321.0          97147054.0        3131372450.0         829345164.0        3691032523.0        3006063034.0        4259826321.0
Wiener process for Thermostat # 7        1 F T T  -2.7221417990508723E-01        2928923925.0        1475590831.0        3028549759.0        1729569924.0         123262326.0        1965188850.0         796079799.0        2105258207.0         955365076.0        2923159030.0        4116632677.0        3067683584.0         796079799.0        2105258207.0         955365076.0        2923159030.0        4116632677.0        3067683584.0
Wiener process for Thermostat # 8        1 F T T  -1.3371509559371584E+00        3293786404.0        2324351260.0        4224364702.0        1341956089.0         912321799.0        2697559406.0        3281794178.0        2616230133.0        1457051261.0        2762791137.0        2480527362.0        2282316169.0        3281794178.0        2616230133.0        1457051261.0        2762791137.0        2480527362.0        2282316169.0
Wiener process for Thermostat # 9        1 F T T  -8.7225140957356684E-01         657961678.0        1513147170.0        2219186603.0        4111646695.0         616753226.0        2747528653.0        3777646647.0        1837464056.0        4204654757.0         664239048.0        4190510072.0        2959195122.0        3777646647.0        1837464056.0        4204654757.0         664239048.0        4190510072.0        2959195122.0
Wiener process for Thermostat # 10       1 F T T  -6.2889449580622436E-01          96284293.0        2446379684.0        3801610533.0        2961863039.0        1877110468.0         129512113.0        4215590817.0        3862461878.0        1087200967.0        1544910132.0         936383720.0        1611370123.0        4215590817.0        3862461878.0        1087200967.0        1544910132.0         936383720.0        1611370123.0
Wiener process for Thermostat # 11       1 F T T   5.7191327297384098E-01         909895394.0        1862319182.0        2400367466.0        1201802882.0        2818881371.0          83822050.0        1683636369.0         362165168.0         814316280.0         869382050.0         980203903.0        2062101717.0        1683636369.0         362165168.0         814316280.0         869382050.0         980203903.0        2062101717.0
Wiener process for Thermostat # 12       1 F T T  -2.0098512161557830E-01        4281566709.0        2729512869.0         275332126.0         437149450.0        1041778670.0        1778805263.0         272317999.0         166758548.0         310112982.0         201045826.0        1680231254.0         118290799.0         272317999.0         166758548.0         310112982.0         201045826.0        1680231254.0         118290799.0
Wiener process for Thermostat # 13       1 F T T   9.4560796151122029E-01        3557498645.0        2583014714.0        2425630516.0         920535172.0        3770643442.0         978988578.0        2245755202.0        1652682525.0        2865544364.0         721509566.0         209733568.0         592362218.0        2245755202.0        1652682525.0        2865544364.0         721509566.0         209733568.0         592362218.0
Wiener process for Thermostat # 14       1 F T T   1.3521741608997204E+00        1265652232.0         337857045.0        3069829703.0         483384005.0        1292133013.0        4131823094.0        3003961408.0        3529909391.0          14538032.0        3603919910.0         566682685.0        1235016484.0        3003961408.0        3529909391.0          14538032.0        3603919910.0         566682685.0        1235016484.0