 # Version information for this restart file 
 # current date 2024-11-30 01:31:50.073
 # current working dir /scratch/hz3883/Week12-IntroAIMD/Runs/Water
 # Program compiled at                              Sat Dec 12 18:27:15 EST 2020
 # Program compiled on                                         cs001.nyu.cluster
 # Program compiled for                                                nyu-intel
 # Source code revision number                                       git:8c64c6e
 &GLOBAL
   PRINT_LEVEL  LOW
   PROJECT_NAME water_aimd_1ps
   RUN_TYPE  MD
   WALLTIME 21600
 &END GLOBAL
 &MOTION
   &MD
     ENSEMBLE  NVT
     STEPS  2000
     TIMESTEP     4.9999999999999994E-01
     STEP_START_VAL  1999
     TIME_START_VAL     9.9949999999998238E+02
     ECONS_START_VAL    -1.1023558357480229E+03
     TEMPERATURE     3.0000000000000000E+02
     &THERMOSTAT
       TYPE  GLE
       REGION  MASSIVE
       &GLE
         NDIM  5
         A_SCALE     1.0000000000000000E+00
         A_LIST     1.8595758612559999E+02    2.7263853498399998E-01    1.1526100454610001E+01   -3.6414578262600003E+01 \
             2.3173375816020001E+02
         A_LIST    -2.7809524712060002E-01    8.5951591808710006E-05    7.2189048017650004E-01   -1.9844539343859999E-01 \
             4.2409257583420001E-01
         A_LIST    -1.4825808131210000E+01   -7.2189048017650004E-01    1.3590902121280000E+00    5.1498896280349999E+00 \
            -9.9949268450990001E+00
         A_LIST    -1.0372189126880000E+01    1.9844539343859999E-01   -5.1498896280349999E+00    2.6661910891169999E+01 \
             1.1507715495310000E+01
         A_LIST     2.1801346360420001E+02   -4.2409257583420001E-01    9.9949268450990001E+00   -1.1507715495310000E+01 \
             3.0958394565589998E+02
         &THERMOSTAT_ENERGY
              -1.6682100159632167E-03
              -1.8486934734757386E-03
              -6.3069336735384275E-04
               7.8130459632489400E-03
              -1.2291910404387806E-02
               2.0187023379428224E-03
              -6.2137965062240863E-04
              -6.2274846254085784E-03
               1.8048941554243615E-02
               3.0828772278553370E-03
               1.2782872081046774E-02
               9.5596827069821620E-04
              -7.7761588887753554E-03
              -6.4679662899609072E-03
              -2.9053694320170731E-04
              -7.9454434421178631E-03
               1.8269015016960957E-02
              -2.3336224286997520E-03
               6.4530310930173921E-03
              -6.5347317409252242E-03
              -2.9227798565751176E-03
               4.5985522918471876E-03
              -1.0508621015244624E-02
              -4.3557775580689703E-03
               2.9676696187781637E-03
               2.8560739948095418E-03
               3.3221544486377892E-03
               1.2778046375528380E-03
               1.1585724523888076E-02
               2.2482662184831219E-03
               2.5033994071877699E-03
              -3.6991434814074957E-03
               3.0644470425177906E-03
               2.7615325564092214E-03
              -1.3885606777540768E-02
               1.4598378572635020E-02
               3.2038677601468331E-03
              -3.4815191175798670E-03
               1.4463998523872158E-03
               6.9402859782845428E-03
              -5.5336475609638483E-03
              -7.9907119418651633E-03
               8.7189158639729668E-03
               4.5539891077913449E-03
              -1.6205449177112614E-03
               1.8431708112432695E-03
              -9.0296689095079280E-04
               6.7285873870458661E-03
               5.9912493903773864E-03
               1.9476399352906396E-03
              -2.8022639451572759E-03
               2.6559038413993632E-03
              -7.7486603206898021E-03
              -7.0263552658451607E-04
              -6.0100692331260600E-03
               4.7551850230143104E-03
              -3.5184723798751464E-03
              -4.0496593152670041E-03
              -8.7036207851630496E-04
               1.9198160661465128E-02
               2.5143941249460605E-03
              -8.8842043741697782E-03
               1.6951289383369858E-02
              -5.1966689490008247E-03
               5.0143176253409170E-03
               2.1692548270911857E-03
              -8.6600730270254399E-03
               5.3707458983106131E-03
               2.1420193494867207E-02
               1.5877197389167772E-03
              -2.0885455836297034E-03
              -1.4272798024490085E-02
              -1.3862479957731919E-03
               2.4137980219242306E-03
              -2.8537146774541865E-04
              -9.6988773595286168E-03
               2.4444172819579712E-03
               3.9920599473133441E-03
               6.0492661279034797E-03
              -9.4449505114240166E-03
               2.0153755923028181E-02
              -3.9004167033893952E-03
               2.7998584296442101E-03
               1.3854816249483108E-03
              -1.7076336125624611E-03
               9.7409020730661912E-03
               3.2678484755229698E-03
              -7.6425917173706314E-03
               3.2891018033217269E-03
               1.1244180432317796E-04
               3.8994977628312643E-03
              -9.5650277123753083E-03
               7.6826807076684888E-04
              -7.6527173910795861E-03
              -7.7678075615687982E-03
               4.1904744326176817E-03
               1.0904031764341087E-02
               6.9993934543483331E-04
               4.9287198914166781E-03
              -6.7150324184187937E-04
              -1.3446960544149513E-03
              -1.0169088307228047E-02
               4.5512572255861986E-03
              -3.0372370952035841E-03
              -2.3581378330099695E-04
               1.4440800277504998E-02
               8.8874893604518339E-04
              -3.9491599655875472E-03
               2.4637610402095090E-03
              -6.0548505229595026E-03
               3.3832413548136871E-03
               6.3152641153103317E-03
              -3.2634072612818380E-03
              -6.4894295861561537E-03
               8.1822707714314293E-03
               6.0722460328694874E-03
              -1.5609586378283420E-02
               6.2514914634481389E-03
               4.3768119947577826E-03
               7.9117044016559241E-03
               8.5738232818158601E-03
              -4.4251961797655368E-03
              -1.9264994662394359E-03
               6.0712910401371657E-03
              -9.3368981693940402E-03
              -2.0717022523480330E-03
               3.5387796064558930E-03
               5.1142477674057552E-04
              -3.7140063803482986E-03
               5.1542892381174713E-03
              -4.1697055900432930E-03
               5.4371292305578243E-03
              -1.2337123854726356E-02
               6.3509953768726606E-03
               1.8663603647381529E-04
              -1.0128331828166629E-04
              -3.7205767302398258E-03
              -5.7776053242877858E-03
               2.7205810145334011E-03
              -2.6000230492417889E-03
               3.4642771169451731E-03
              -4.6380089503149837E-03
               1.6303323664499790E-02
              -5.0790414717649026E-03
              -6.7534959010981613E-03
              -1.6040927967311174E-03
               5.6009988504403425E-03
               1.0600558421198017E-02
               2.8534062094490351E-03
              -4.6813513192278215E-03
              -1.6967638693495685E-02
               7.6387989928560348E-03
              -3.1495260433036257E-05
              -5.9993699276844007E-03
               1.0187125117723727E-02
              -1.4954674016444992E-03
              -1.3783128154507547E-03
               4.8146506472816339E-03
              -1.3101253033560656E-03
               2.0405013359727077E-03
              -1.0628593716156346E-02
              -8.6066752222534217E-03
              -9.8044201276037434E-04
               1.3698862153048344E-04
               9.4785577896047187E-03
               1.2377478644939297E-02
               2.6033901665783290E-03
              -2.0888831412030701E-02
              -6.4689286854710268E-03
               1.3371003958973794E-02
              -3.8288549935445769E-03
              -3.1244624890164512E-03
               1.1639071244167777E-03
              -5.4041654250273456E-03
              -4.0071828904695052E-03
               2.2124492361491012E-03
              -7.9049576034992911E-03
               2.0572798471807734E-03
               3.8981830751351775E-03
               8.2851171203496398E-03
              -2.9266677684233692E-03
               4.9911272165673373E-04
               7.1806525906498676E-03
              -1.8806128151852113E-02
               1.1318667868529883E-02
               1.1496739091603472E-03
              -4.4625181479270391E-03
              -5.5474870900930578E-04
              -1.9574481573902684E-03
              -3.9991753843241125E-04
               4.0237194280955037E-03
               1.6499393176396595E-04
              -1.2081364705516429E-02
               8.5563889587388971E-03
               9.5516508721132098E-03
              -8.1746261462542890E-03
              -7.2515235511616243E-03
               2.2572749125516853E-03
              -4.6074753130362434E-03
              -4.6152059749081245E-03
              -1.7619021940134027E-03
              -2.1468071696106737E-03
               1.6953229944421291E-02
              -4.3977328377182425E-03
              -6.1765810687112637E-03
              -7.3723700080597092E-04
              -4.0970897657134431E-03
              -1.0664643389888078E-03
              -1.6309414997753941E-03
              -3.7631381424440473E-04
               1.3832700668312041E-02
              -7.7417008727341807E-03
               1.0703842820497637E-02
              -5.9632202653873501E-03
               5.5110935463873034E-03
              -2.4203506291250974E-03
              -1.4434953674992397E-02
               9.8234533037495284E-03
               3.1251126365364544E-03
              -1.7196357448717017E-02
              -3.9001269305022649E-03
               6.6944984473157909E-04
              -3.1160753254787476E-04
               1.7523892418596757E-02
              -2.8941469753618844E-03
               1.5503636865981997E-03
               2.8457312821055462E-03
               9.3856636627854249E-04
               4.8833799780616284E-03
              -3.5631820852874206E-03
              -1.2374203322852440E-02
              -1.5726794829320227E-03
               1.4243698811842809E-02
              -5.4639703812122409E-03
               1.3629499545224932E-03
               4.0546372222924620E-03
               4.5090334066613539E-04
              -2.7938123261783097E-03
               1.2783462956005482E-02
               7.2368344968519720E-03
              -5.3869483519396084E-03
              -8.8734784452308649E-03
              -7.4239181296486590E-04
              -3.8040558281229129E-03
               3.6405943743906665E-03
               3.8372325363020899E-03
               5.9005494111595063E-03
              -3.7913221853247900E-03
               7.7620542718506171E-04
               2.7699993212490777E-03
               6.8618427802352938E-03
              -1.2021568506216964E-02
              -7.0653055860552521E-03
              -7.2380362974462948E-03
               6.0639856671995057E-03
              -8.8876653007122740E-04
               7.6616263869149449E-03
              -3.7468128767091983E-03
               1.6005327468560499E-02
              -2.1540546654892523E-02
               2.1514772312763213E-02
               1.3526700587452142E-03
               1.9812074437335551E-03
              -6.5275142036432107E-04
               4.2507160866538168E-03
              -6.7567158900010624E-03
               5.4789147953026668E-05
              -5.8796813274026392E-03
               7.3287552382339397E-04
               7.3145148058518222E-03
              -1.9865360131493823E-03
              -5.0090426088174045E-03
              -1.0306386161592729E-03
               1.1433297909497807E-02
               4.1775220049273427E-03
               2.1128671728993203E-03
              -2.8287680703808486E-02
               2.4089314490690600E-02
              -6.8275802402620045E-03
               7.4604352884628322E-03
              -7.4494756634112909E-03
               1.5756013607685516E-03
               7.9214621636335171E-03
              -4.3137701501988080E-03
              -3.9503307684474213E-03
               4.9857980453535565E-03
              -1.3080678581785790E-03
              -1.0640371221174977E-02
              -2.2040854100084553E-03
              -6.9488060821839127E-04
              -2.9381748671701061E-03
               1.4596928356992948E-02
              -1.9387773879334933E-03
              -7.2368810219525289E-03
               1.8870712638432818E-03
               1.1196925165367874E-02
              -1.2516466863988378E-02
              -1.6243212060667296E-03
              -5.1611760803066641E-03
               3.5452827007830055E-04
              -1.0954685202032896E-02
               3.7105635286110144E-03
               7.4229123770656446E-03
               1.3227766531654398E-03
               8.0300544896678636E-03
              -1.1586623565305224E-02
              -2.4311686644656254E-03
              -1.3869007965053666E-03
              -2.0504132532115568E-03
               1.6442863400181921E-02
              -6.9758392069189734E-03
              -6.4715376632938880E-03
              -3.8762408750831344E-03
               1.2885769749808746E-02
               1.3005706780103749E-03
               1.1849525693896716E-02
               2.4708921870906691E-03
               2.3171206290267558E-03
              -7.6770095836590016E-03
               1.2639726885222077E-03
               1.1509139559568133E-02
              -1.5478090057118143E-02
              -1.4808520825826954E-02
               1.6848893429361630E-02
              -7.6720261620276068E-03
               1.0523715651362559E-02
               9.6881040842708703E-04
               4.2644823145204219E-03
              -3.3800987912210689E-03
              -1.0781895880383006E-03
              -1.4589817710224764E-03
              -1.5892206837472132E-02
               6.9549355322934322E-03
              -2.9309042242265872E-03
               5.5784627995272016E-03
               5.1623485498643353E-03
               1.3782957686214594E-02
               1.6290746460043924E-03
              -1.2936506478943384E-02
               1.1799710196426243E-02
               3.2289730303829613E-03
              -7.9010222272189855E-03
               3.0162938322377468E-03
              -7.0981405391394919E-03
              -7.8574186470767380E-04
              -4.9171835544014808E-03
               3.6189681805867766E-04
               8.2894938210297539E-04
               9.7291632177939989E-03
               2.5442053792839969E-03
               1.4737207745153509E-03
               4.4222759902722650E-03
              -8.0503536277373028E-03
              -2.8348262617706919E-03
              -1.5298159195621370E-02
               1.2916873989376857E-02
               3.6789775191032725E-03
              -8.4964400950087466E-03
              -1.3204511548254458E-02
               1.5346174241631165E-02
               2.5189179328206960E-03
              -3.9945911967153910E-03
              -1.1174975200244295E-02
              -5.0049064405036595E-03
              -3.5724732849081176E-03
               1.7043280010900257E-02
               1.1226373956932333E-02
              -5.4745659350842512E-03
              -1.1528373712690948E-02
              -3.9235818294807408E-03
               2.4175571548316981E-03
              -2.5467073988908210E-03
               4.0929090103525743E-03
               8.7936049232778327E-03
              -4.5756600442789152E-03
              -6.0190460133131233E-04
               5.6284311559150774E-03
              -8.8047639887198891E-03
              -2.8867275783998770E-03
               6.2575137630400072E-03
               2.1517756743485474E-03
              -1.9420356155750971E-03
               2.0128640201542376E-02
              -6.2833509911301285E-03
              -2.1138938130796359E-02
               8.5049654751691902E-03
               2.0879403870489510E-03
              -9.5317875062210663E-04
              -5.3248496666663987E-03
              -7.6715167128512361E-04
              -9.2399402320423422E-03
               1.9400226255541535E-02
              -2.1525541854853897E-03
              -7.1730475756401919E-03
              -2.5491635671857985E-03
               1.3268417657676976E-03
              -7.0845295536343927E-03
               8.4484550482570638E-03
               5.7066804714416709E-03
              -2.8282464417905207E-02
               1.1901115291832727E-02
               7.2047244008548788E-03
              -7.6754320097063237E-03
               6.5299022138879800E-03
               2.1239333346061307E-02
              -2.6226172739897110E-04
               6.9039927833193047E-03
               6.1292009219283284E-03
              -6.6411252451767627E-04
               3.0263475552754554E-03
               9.4632904998080474E-04
               1.8503221321762493E-03
              -1.2403593811272514E-02
               6.4942203752248679E-03
              -6.6453958516254352E-03
              -2.5023046783140116E-04
               2.9088929791996933E-03
              -2.6950737061096743E-03
               1.8806358864417947E-04
               3.9394158750238736E-03
               2.3679449870337202E-04
              -2.9819651151891911E-03
               2.1592433667628709E-03
               6.4522404650328149E-04
               2.3714783912604709E-03
               1.7224041081804044E-03
              -1.0275992651606178E-02
               6.3642332342258769E-03
              -6.9896390207895660E-03
               4.1408711419887905E-03
               9.0572972953560215E-03
              -9.6989752465860331E-03
              -4.7052824802830684E-03
              -6.9568571465942345E-03
               5.9531473895286348E-03
              -1.1945098120306386E-02
              -5.5902231545444337E-03
               1.0708188740468328E-02
              -7.4701554752716597E-03
               9.2141898591349743E-03
              -9.1393653392223394E-03
              -1.4737786595787358E-02
              -1.8971456663405199E-03
               5.3861065693966668E-03
              -9.7686028713688828E-03
              -7.3681561150298700E-03
               4.1866135775074902E-03
               6.9464747107988159E-03
               1.2417826279432055E-02
              -6.7689650222548950E-03
              -5.1293202560201805E-03
              -6.0923712138880757E-03
               2.9680178131260828E-03
               7.5436916867725615E-03
              -1.2172329823198106E-02
              -7.9726074230597466E-03
               2.1938452936037460E-02
               4.2107984706916688E-03
              -1.5867224603552093E-02
              -5.9018449346614410E-03
               4.5341102893241897E-03
              -3.2997462941674561E-03
               4.0341438850683749E-03
              -1.4461828801460715E-04
               3.2857105494908515E-04
               7.7424542290557953E-03
              -1.1468237529794936E-02
               3.3837734448355652E-03
              -4.2577843766505377E-03
               1.2549128607843999E-02
               1.7658198629212818E-03
               7.0389815888773260E-03
              -5.0086930262379314E-04
              -8.5611958161871426E-04
              -6.6051691730015152E-03
               7.4197829932213166E-03
               8.9686456001609790E-03
               3.0623792072749412E-03
              -3.5992494093066269E-03
               7.3873180370177490E-04
              -5.4625482186059929E-03
               5.9290095501370954E-03
               6.7038445774188985E-04
               1.0066768310767254E-02
              -7.5324991654407555E-03
              -2.5262469376543099E-03
              -3.4513935945824767E-03
              -1.8601122920824341E-03
              -2.6127510972685508E-03
              -1.7456077427862164E-03
              -1.6826448404547796E-03
               3.5465122286572372E-03
               8.0447047169805320E-03
               4.8888470550303076E-03
              -1.3010437371293654E-02
               1.4480225041761173E-03
               1.7805936099376614E-03
               1.1667693936283732E-03
               1.4649390718151157E-03
               7.3481175039583580E-03
               6.4071356027393923E-04
               1.7416294442911193E-03
              -9.6155833383083176E-03
              -6.7379415964109258E-03
               4.8949721350282230E-03
              -9.1886994321405367E-03
               1.7527118763602846E-03
               8.2533170767542879E-04
              -2.0750894029118935E-03
               4.1047306411587012E-04
              -1.2949865774200169E-03
               8.1504922668269031E-03
              -2.8222668492191593E-03
              -2.6829945029045259E-03
               1.3211739303578128E-03
              -9.8658277130107613E-04
              -6.8017717809362045E-03
              -4.5197213613808280E-03
               7.8235105533106114E-03
               5.2456976732255540E-03
               3.7713213521715027E-04
              -1.1701215381343669E-02
              -1.2842200181709290E-02
               1.5225829787180411E-02
               3.8304800672101392E-03
               5.4390175108957918E-03
              -3.9401258933854629E-03
              -1.1211406477832923E-02
               5.7420709178006091E-03
              -1.4241240779586117E-03
              -1.3201214036144472E-02
              -3.6103981683104809E-03
              -1.0408821607291015E-02
               1.8314630579873347E-03
              -2.2412136865952803E-03
               1.1663132093770236E-02
               5.0520689500109205E-03
               2.6565883713034703E-04
              -8.1924228738074496E-03
              -2.4563680040904116E-03
               1.1117423034776907E-03
               2.1522200761525247E-03
               2.0240743721504141E-03
               5.0212400488331690E-03
              -5.5586004216599139E-03
               9.1772771153938049E-03
               7.5515035568413597E-03
               2.8414317542305449E-04
              -2.0731421566440567E-03
               1.3043610344725868E-04
              -1.0668178866014854E-03
              -9.9324405915931537E-04
               5.5261135321164152E-03
               1.3874363592320577E-02
              -1.1790186169780536E-02
              -1.1931856983089049E-02
              -4.8822482961381111E-03
               1.1835019101253218E-02
              -2.3636411462839282E-03
               2.1174539216477920E-03
              -9.0044972711283348E-04
              -8.4320509897311963E-03
               1.1576635138920521E-02
              -2.2435276032988908E-03
              -3.7367923220863876E-03
               1.3322254488326699E-02
               6.4010970568352506E-03
              -1.2860889860486166E-03
               7.4991931032428443E-03
              -6.3206479836264099E-03
              -1.0247090565683707E-02
               3.9864286786320509E-03
              -1.6790015240012886E-03
               1.2704145364171361E-03
              -2.5889279850911042E-03
              -2.8269507270143601E-03
         &END THERMOSTAT_ENERGY
         &RNG_INIT
Wiener process for Thermostat # 1        1 F T T  -1.3877964172148927E+00        3819968671.0        1923139303.0        2505174482.0        1129753110.0        1102497896.0        2318485114.0             12345.0             12345.0             12345.0             12345.0             12345.0             12345.0             12345.0             12345.0             12345.0             12345.0             12345.0             12345.0
Wiener process for Thermostat # 2        1 F T T   5.9690975612399577E-01        1863048650.0        1167059563.0        4156553466.0        2659491592.0        2500563110.0        2967422577.0        3692455944.0        1366884236.0        2968912127.0         335948734.0        4161675175.0         475798818.0        3692455944.0        1366884236.0        2968912127.0         335948734.0        4161675175.0         475798818.0
Wiener process for Thermostat # 3        1 F T T  -1.9577134425325560E-01        2029679022.0        1992813296.0        1475024831.0        3744841000.0        4231717232.0        1872789393.0        1015873554.0        1310354410.0        2249465273.0         994084013.0        2912484720.0        3876682925.0        1015873554.0        1310354410.0        2249465273.0         994084013.0        2912484720.0        3876682925.0
Wiener process for Thermostat # 4        1 F T T  -5.5423907268054418E-01         972191078.0        3239779000.0        2283144792.0        4029872124.0        2868550739.0         388907277.0        2338701263.0        1119171942.0        2570676563.0         317077452.0        3194180850.0         618832124.0        2338701263.0        1119171942.0        2570676563.0         317077452.0        3194180850.0         618832124.0
Wiener process for Thermostat # 5        1 F T T  -3.6874052824979625E-01         246061856.0        2033992607.0        4208640487.0        3425480013.0        1713937449.0        3033523858.0        1597262096.0        3906379055.0        3312112953.0        1016013135.0        4099474108.0         275305423.0        1597262096.0        3906379055.0        3312112953.0        1016013135.0        4099474108.0         275305423.0
Wiener process for Thermostat # 6        1 F T T   5.7875332706651861E-01        4268450248.0        1240555256.0        2123119467.0         299173953.0        2368881629.0        2698044585.0          97147054.0        3131372450.0         829345164.0        3691032523.0        3006063034.0        4259826321.0          97147054.0        3131372450.0         829345164.0        3691032523.0        3006063034.0        4259826321.0
Wiener process for Thermostat # 7        1 F T T  -1.8983145396195047E+00        4260312323.0         705196258.0         937296972.0        1373994383.0        3179698350.0        3757299263.0         796079799.0        2105258207.0         955365076.0        2923159030.0        4116632677.0        3067683584.0         796079799.0        2105258207.0         955365076.0        2923159030.0        4116632677.0        3067683584.0
Wiener process for Thermostat # 8        1 F T T  -3.3116685260855833E-01        2351531572.0        3477839446.0        1021048571.0        1975906828.0        1893564842.0         777663015.0        3281794178.0        2616230133.0        1457051261.0        2762791137.0        2480527362.0        2282316169.0        3281794178.0        2616230133.0        1457051261.0        2762791137.0        2480527362.0        2282316169.0
Wiener process for Thermostat # 9        1 F T T   1.4386427466100791E+00        3265425123.0        2999969280.0        3048908474.0        1047403656.0         134736569.0        4209884843.0        3777646647.0        1837464056.0        4204654757.0         664239048.0        4190510072.0        2959195122.0        3777646647.0        1837464056.0        4204654757.0         664239048.0        4190510072.0        2959195122.0
Wiener process for Thermostat # 10       1 F T T  -2.3947144259907721E-01        2825100143.0        2025717467.0        3827127036.0        1422979577.0        1026966836.0        1481957392.0        4215590817.0        3862461878.0        1087200967.0        1544910132.0         936383720.0        1611370123.0        4215590817.0        3862461878.0        1087200967.0        1544910132.0         936383720.0        1611370123.0
Wiener process for Thermostat # 11       1 F T T   2.8146058156813852E-01        3161233422.0        2404453347.0        1673723662.0         906337025.0          73303549.0        1016746719.0        1683636369.0         362165168.0         814316280.0         869382050.0         980203903.0        2062101717.0        1683636369.0         362165168.0         814316280.0         869382050.0         980203903.0        2062101717.0
Wiener process for Thermostat # 12       1 F T T  -6.6211933450441895E-01         208754144.0        1983222026.0        1378772639.0         460703296.0         651350573.0        3898252829.0         272317999.0         166758548.0         310112982.0         201045826.0        1680231254.0         118290799.0         272317999.0         166758548.0         310112982.0         201045826.0        1680231254.0         118290799.0
Wiener process for Thermostat # 13       1 F T T   2.2418582236869027E-02         545702192.0         878923556.0         464381839.0        1267067492.0        3004786620.0        2258194530.0        2245755202.0        1652682525.0        2865544364.0         721509566.0         209733568.0         592362218.0        2245755202.0        1652682525.0        2865544364.0         721509566.0         209733568.0         592362218.0
Wiener process for Thermostat # 14       1 F T T  -1.3512048311678651E-01        1458493840.0        4113617013.0        4254721901.0        1381595540.0        2397017163.0        1069755117.0        3003961408.0        3529909391.0          14538032.0        3603919910.0         566682685.0        1235016484.0        3003961408.0        3529909391.0          14538032.0        3603919910.0         566682685.0        1235016484.0