 # Version information for this restart file 
 # current date 2024-11-30 00:45:13.114
 # current working dir /scratch/hz3883/Week12-IntroAIMD/Runs/Water
 # Program compiled at                              Sat Dec 12 18:27:15 EST 2020
 # Program compiled on                                         cs001.nyu.cluster
 # Program compiled for                                                nyu-intel
 # Source code revision number                                       git:8c64c6e
 &GLOBAL
   PRINT_LEVEL  LOW
   PROJECT_NAME water_aimd_1ps
   RUN_TYPE  MD
   WALLTIME 21600
 &END GLOBAL
 &MOTION
   &MD
     ENSEMBLE  NVT
     STEPS  2000
     TIMESTEP     4.9999999999999994E-01
     STEP_START_VAL  1500
     TIME_START_VAL     7.5000000000000762E+02
     ECONS_START_VAL    -1.1023558357480229E+03
     TEMPERATURE     3.0000000000000000E+02
     &THERMOSTAT
       TYPE  GLE
       REGION  MASSIVE
       &GLE
         NDIM  5
         A_SCALE     1.0000000000000000E+00
         A_LIST     1.8595758612559999E+02    2.7263853498399998E-01    1.1526100454610001E+01   -3.6414578262600003E+01 \
             2.3173375816020001E+02
         A_LIST    -2.7809524712060002E-01    8.5951591808710006E-05    7.2189048017650004E-01   -1.9844539343859999E-01 \
             4.2409257583420001E-01
         A_LIST    -1.4825808131210000E+01   -7.2189048017650004E-01    1.3590902121280000E+00    5.1498896280349999E+00 \
            -9.9949268450990001E+00
         A_LIST    -1.0372189126880000E+01    1.9844539343859999E-01   -5.1498896280349999E+00    2.6661910891169999E+01 \
             1.1507715495310000E+01
         A_LIST     2.1801346360420001E+02   -4.2409257583420001E-01    9.9949268450990001E+00   -1.1507715495310000E+01 \
             3.0958394565589998E+02
         &THERMOSTAT_ENERGY
              -4.0924487897619367E-03
              -1.3172968051100764E-03
              -1.5138452140090884E-03
               6.9077678433851486E-03
              -1.2693030778143204E-02
               5.7230698089150494E-03
               2.6330278400538139E-03
              -9.2023221713824089E-03
               1.4071245620495656E-02
               4.2195354663204605E-03
               9.5056443917841630E-03
              -4.4386864364502482E-03
               8.4652855995882229E-04
              -1.0213935119823797E-02
              -6.5335338925979472E-04
              -4.0464718332149808E-03
               1.4775502245605665E-02
               1.0925116439940248E-03
               7.6109421484503595E-03
              -5.8129338961538553E-03
               1.7864120957073728E-03
               1.6960710148100286E-03
              -1.0249255605593588E-03
              -3.3811499522867137E-04
               8.0561866220986314E-05
               1.2576773156692820E-03
               1.1363364194397550E-03
               2.0071043448353289E-04
               1.3254616331566972E-02
               2.3406116138459925E-03
               2.6255369260618881E-03
              -2.5318251143387968E-03
              -3.0771418315427420E-03
               3.1315462925903693E-03
              -1.6824268367888615E-02
               1.8101738401344082E-02
              -4.3826705089400868E-04
              -2.0386355838323302E-03
               1.3124241790922410E-03
               6.2065376496022199E-03
              -8.1316882820437683E-03
              -2.8295738873808209E-03
               7.7896476179703921E-03
               2.7891773229328422E-03
              -3.3040869905124701E-03
              -9.6740625796258318E-05
              -6.1648364330556780E-04
               4.1212462281301019E-03
              -8.3019749114912828E-04
               2.8196172890075336E-03
              -5.8987703430025094E-04
              -2.0821163559217462E-03
              -3.6882902007737551E-03
               2.8981697811006333E-03
              -6.3373672506249722E-03
               4.5114579390211048E-03
              -2.7358100930093185E-03
              -1.1708159501227695E-03
               8.2564110428462066E-04
               1.0790327520531917E-02
               1.9857742332950461E-03
              -1.3271863959587467E-02
               1.7222481279309629E-02
              -3.0024746088413439E-03
               4.1890927453556645E-03
               2.7681758370071071E-04
              -1.0023418677168662E-02
               3.7419139418931159E-03
               2.1181827204442713E-02
               3.1211655197938642E-03
              -1.7938359721886730E-03
              -1.2374668745171076E-02
              -1.3598261833324035E-03
               2.8914133214405377E-04
              -5.2799739440204910E-04
              -9.7678900985074275E-03
               4.3864231537386195E-03
              -1.6152873522280197E-03
               8.1692450118297909E-03
              -1.2914349327008639E-02
               1.9854492699908161E-02
              -3.5708823037987514E-03
               7.5351986179733436E-04
              -1.5302745764646296E-03
               5.2774197854700737E-03
               5.0466539065618186E-03
              -2.1897987525405812E-03
              -4.0065999697139892E-03
               4.4503887159679121E-03
               2.2997176832357858E-03
               1.0606286534755786E-03
              -8.5202010178940524E-03
               3.7172222296390201E-03
              -7.2830166996307594E-03
              -9.6269452392707486E-03
               8.5621404699018806E-03
               1.0580539714055214E-02
              -4.3776778442626476E-03
               4.9864022197101390E-03
               2.3332163730222285E-03
              -3.4575133554776909E-03
              -6.1253003517194472E-03
               9.1655163964149790E-04
              -1.8285990347186780E-03
              -3.6388952600821096E-03
               1.2129784640732041E-02
               2.8581970307653079E-04
              -2.4378529409876011E-03
               2.6820706427086623E-03
              -5.3165970152430969E-03
               3.4093290525770985E-03
               4.3249257085458872E-03
               1.3558298911382455E-03
               1.5250287906736341E-03
               6.3139325434531544E-03
               4.9087058258028907E-03
              -1.4765798775727560E-02
               3.1468499256033108E-03
               6.8069864957089029E-03
               3.3365529179394432E-03
               1.0891587614021678E-02
              -4.7051959358241063E-03
              -3.0854507866479109E-03
               4.3312947947695768E-03
              -7.3726022651538440E-03
              -1.6498704914235140E-03
               6.4721845061681870E-03
               2.3249047441752926E-04
              -2.1024600201469978E-03
               5.7220912318850493E-04
              -2.1315390842182444E-03
               4.9610883670013180E-03
              -9.1230017134280202E-03
               6.1825500780741394E-03
               3.6402553330876163E-03
              -3.6331657314327424E-04
              -2.8390697254054372E-03
              -4.3582249247263978E-03
               5.2841570587315936E-03
              -2.3639734781671410E-03
               6.1959062683581917E-03
              -8.4518728616311971E-05
               1.6030344257472864E-02
              -5.6966689656043727E-03
              -4.9980542218311299E-03
              -2.4159837842647842E-03
               8.4702631121493354E-03
               3.9803556072782204E-03
               6.3583967188314962E-04
              -5.0722743936533138E-03
              -1.2796089474867869E-02
               3.1398077353275589E-03
               4.6500277223938055E-03
              -8.1157352231363399E-03
               9.2148058934313146E-03
              -1.3854388471823415E-03
               4.3901342813179351E-04
               6.9583982210420607E-04
               2.5460928976970117E-04
              -2.2318338141555719E-03
              -1.6017739843209667E-03
              -5.2052210883373430E-03
              -5.2463724757355790E-04
               1.1508776278819251E-03
               3.4402795410413203E-03
               1.0725730222419129E-02
              -3.4331730950505780E-03
              -6.2934121528179154E-03
              -6.7705773239747982E-03
               1.0348934864687506E-02
              -1.8593162373698948E-03
              -2.7634173186614690E-03
              -7.3733905996808719E-04
              -3.9880287222986621E-03
              -2.4513518132803888E-03
               5.4812528949920907E-03
              -9.1435263571207123E-03
              -4.6585027280799263E-04
               8.9116315973867589E-04
               5.8460928250819470E-03
              -3.8572451891980787E-03
               1.1219631775623729E-04
               5.9886827968468875E-03
              -1.7845448232239658E-02
               1.2061173824096473E-02
              -9.2103494523355312E-05
              -2.4867389281314455E-03
              -1.5843654814318973E-03
              -2.0025910389922727E-03
              -7.0348013305035809E-05
               1.2112311022272129E-03
              -4.1371957963129050E-05
              -8.4161486450994877E-03
               9.4031246710942901E-03
               6.1606419188599193E-03
              -7.2847932619539485E-03
              -4.8510160037795709E-03
               3.3260853195405567E-03
              -2.2569919280054037E-03
              -1.5413945224918839E-03
               4.2604023858428837E-05
              -2.7371082849842352E-03
               1.1583327680703581E-02
              -2.2491734822351268E-04
              -4.5021386923944553E-03
               1.4257768052190197E-04
              -5.2050850846817494E-03
              -1.0504657379049046E-04
               1.0013979427719785E-03
              -1.2709150073089075E-03
               9.4451607405603259E-03
              -8.5834508570465061E-03
               1.4264751247738352E-02
              -8.5077428169865812E-03
               3.7524066159925640E-03
               4.3124166901054462E-03
              -9.3402935270471034E-03
               7.1034222001041033E-03
              -1.5409222790553772E-03
              -1.3388908799716461E-02
               2.5812132827186586E-03
              -1.6061590967272860E-04
              -4.9564549324182083E-04
               7.4832160874609040E-03
               4.4461181416544353E-04
               6.1975817981570441E-04
               6.5381706077312428E-04
               3.4109399323684341E-04
              -4.2731802232209067E-03
               6.3640270643140397E-03
              -1.0534110363299577E-02
               2.7859094044702837E-03
               8.9846909697368534E-03
              -8.2549442957239386E-03
               4.0705124570906909E-03
              -2.3791370156194679E-03
              -2.5300683118899630E-03
              -4.7123456341695307E-04
               8.9064592876168924E-03
               5.5690375214849505E-03
              -3.1098741815211854E-04
              -4.3716179620879982E-03
              -1.6449352676011150E-03
              -2.0380100839273293E-03
              -1.3977259093114283E-03
               3.2352642228022010E-04
               7.8933966962591515E-03
              -4.2670849540474808E-03
              -1.1973401480710158E-03
               3.1825486626872552E-03
               3.2545208040328406E-03
              -4.4258164610401210E-03
              -7.1363158352073137E-03
              -7.8072373700148164E-03
               3.7638118605554001E-03
              -3.1073979840710152E-03
               7.0994254913272353E-03
              -5.0472436289062074E-03
               9.4059931309128982E-03
              -1.2333903783891233E-02
               1.8256253488792912E-02
               1.0188982861922957E-04
               6.3180659786625983E-03
               1.4520183897288241E-03
               2.6453542348330084E-03
              -1.0227592858365742E-02
               4.5730605870788303E-03
              -3.1530100860830642E-03
              -3.6187150150308561E-03
               8.1727054494079854E-03
              -5.1143077008403851E-03
              -3.8960141861386815E-03
               4.5170873563470052E-03
               1.4209657255030839E-02
              -2.9838894479655401E-03
               2.3137060044979732E-03
              -2.9667069444496569E-02
               1.7028740802251165E-02
              -4.3527860481216090E-04
               9.0867892639284308E-03
              -7.7658814555211647E-03
               2.8141807422031578E-03
               1.5083310570319936E-02
              -3.6313761031040652E-03
              -9.6930312339507316E-03
              -7.0591600522157127E-03
               9.7328952740508663E-04
              -4.6652534260148825E-03
              -3.0331481663033299E-03
              -2.4054638313899331E-03
              -6.3769587705615142E-04
               1.5489929406557065E-02
               1.3069918776911504E-03
              -6.9372776454663656E-03
              -1.9392573555814610E-03
               3.8783934485198644E-03
              -1.1502862189951731E-02
              -4.4517037559388128E-03
              -2.0868338450290439E-03
              -4.4916859917556295E-03
              -7.9538038401281101E-03
               8.5486363998782556E-03
               3.1416541269118975E-03
              -2.8759391073618283E-03
               8.0862457892895041E-03
              -1.1889522132623427E-02
              -6.0329593056069350E-04
              -2.5287205521702413E-03
               1.8239209252606263E-04
               1.5456751905130727E-02
              -8.2317806920834298E-03
              -1.0414922594318615E-02
               7.9574949713683198E-03
               8.8258795097169301E-03
              -5.3639829034567129E-03
               1.2819305012347714E-02
               1.7228786036000254E-03
               4.1993036799975875E-03
              -1.0714211701956728E-02
              -5.5824632769311761E-03
               1.3659612460656145E-02
              -5.6274561993815584E-03
              -1.3093097300390740E-02
               1.4818433445972910E-02
              -3.9396269731659626E-03
               5.6716211342158745E-03
               4.0346783913180317E-03
               8.7018256659853453E-04
              -6.2062733226228182E-03
              -8.0923483438707349E-03
              -1.6000812124164301E-03
              -1.4187828200349884E-02
               1.3672166051787567E-02
              -1.1656718249944216E-03
               5.1588741218717028E-03
               2.7354010959153188E-03
               1.3168036700495640E-02
               3.7228205591254013E-03
              -1.0011686451984265E-02
               1.3532857103004821E-02
               3.0928133716920572E-03
              -1.2983787192749004E-02
               2.8353758124310081E-03
              -3.2293530695465156E-03
               4.5161109248209195E-04
              -9.5591651757205055E-03
              -9.7542216721238422E-04
              -1.9756417156298908E-04
               1.2060670910800531E-03
               3.8478159836255726E-03
               3.6944701750508870E-03
               5.2428525742423829E-03
              -9.9899318461604374E-03
              -4.2188683840647229E-04
              -7.7637990725298103E-03
               1.3162699039919137E-02
              -2.6264080888027176E-03
              -3.5151390176950716E-03
              -3.6012533319793464E-03
               3.4504356556106287E-03
               7.8346149046084365E-04
              -1.7639259743834190E-03
              -1.1482358562350624E-02
              -6.3160813001916002E-03
              -1.5257117552251857E-03
               1.6759566613150922E-02
               5.4427064737428950E-03
              -4.4632442991358011E-03
              -8.6447243734114505E-03
              -2.7399455005073133E-03
               2.9380725867098247E-03
              -1.5840827880608981E-03
              -1.2222340486094563E-03
               3.5386673854650419E-03
              -6.5841642395862016E-04
              -1.8262191693668981E-03
               2.9724919296589950E-03
              -3.5273497288597190E-03
              -2.4619077982302247E-03
               2.9812957272593579E-03
               3.3851390565543668E-03
              -3.9892007796529056E-03
               2.1244181851176179E-02
              -1.0101744657303050E-03
              -1.8539355470441471E-02
               1.5644526155747174E-02
              -3.7848365367066988E-03
              -7.4912726050547279E-03
              -5.2685110291309876E-03
               5.5153488133083840E-04
              -1.0589466009673233E-02
               2.2855173540097213E-02
              -4.4164086513746748E-03
               1.1885940038804717E-05
              -8.0356871127082799E-03
               1.7661737381700737E-03
              -4.2783767971845401E-03
               2.4620055076445520E-03
               4.6633069602548573E-03
              -1.5056268196975331E-02
               6.1151910498469303E-03
               6.4011725963274658E-03
              -1.2723594231177379E-02
               8.7134278601238430E-03
               1.3735558194142596E-02
               1.6216731605545223E-03
               4.7792726315619549E-03
               7.1132791123029926E-03
              -9.6927014981927039E-03
               5.9960592629194152E-03
               6.5754314917866024E-03
              -1.1444896586067764E-03
              -8.1114189076304053E-03
              -6.3745895923657400E-04
              -6.6829132246609595E-03
              -8.8576698086289532E-04
               5.7914403355380202E-03
               2.8488840875585840E-03
              -9.5940050036389703E-03
               9.7233198600047404E-03
              -3.1526113092758602E-03
              -2.4278951211368561E-04
              -1.5471890093678405E-03
              -1.4466176004202251E-04
               1.0937394840310677E-03
              -6.2940924543281431E-04
              -3.6458745725400478E-03
               1.6497373407325601E-03
              -5.0490457850321845E-03
               2.4577077170993247E-04
               1.0324589002251293E-02
              -1.0140961463918133E-02
              -2.6891066620637390E-03
              -4.3815227501295580E-03
               6.8111544967432514E-03
              -1.0654505120276903E-02
              -2.4439975440015698E-03
               8.4724426616831824E-03
              -1.9827476972600752E-03
               8.2198738453413325E-03
              -8.0680094243079647E-03
              -1.2305366211888158E-02
              -6.9342323573693489E-05
               5.4025198295249389E-03
              -8.8697185157253708E-03
              -7.6110400608419629E-03
               1.6298108126664088E-03
               9.2895108268393235E-03
               9.0154610374267551E-03
              -4.6613841753375355E-03
              -4.3516582883322543E-03
              -5.0538684366478884E-03
               1.7428266992736386E-03
              -1.5172056366367191E-04
              -5.2647556964301439E-03
              -1.1673089110785908E-02
               2.1692976910737748E-02
               2.8931287224512876E-03
              -1.1917524318696885E-02
              -6.0588224008853277E-03
               4.6331422703512846E-03
              -3.5341529729429563E-03
               3.6107626859810667E-03
              -9.0446475163761695E-04
               5.8834997127241878E-04
               5.8388331896367593E-03
              -7.6755372533528236E-03
               1.7857945649207719E-03
              -3.8970385489967663E-03
               2.3723813613966156E-03
               1.1271451479402774E-03
               9.2617975164493056E-03
               5.1335497862736463E-04
              -2.0463607462290296E-03
               9.4046045255241997E-04
               9.5741250696370732E-03
               6.6270422446487922E-03
              -9.0380656044576830E-05
              -3.8814719961092065E-03
               2.1918474654247055E-03
              -1.1241710941029423E-02
               1.2098344569220917E-02
               3.3804561831444135E-04
               6.1359559653929151E-03
              -7.0234002130216905E-03
              -4.6094444393763223E-04
              -3.3544267315598602E-03
              -3.3963186001995829E-03
              -1.1419973998513884E-03
               1.1864041050541310E-05
               3.1502146385129984E-04
               2.7169833220150839E-04
               7.7947742088034329E-03
               6.6637854159595899E-03
              -1.1088299601696251E-02
               2.7957211067451649E-03
               9.2447693672902717E-04
              -3.1384886852180085E-04
               4.2267312170127073E-03
               7.0579988256005101E-03
               1.2784512398529501E-03
              -2.5738954887402301E-04
              -8.8594469779377447E-03
              -5.9429124102277188E-03
               3.1168758989362365E-03
              -4.3858840315671886E-03
               1.4390895123422103E-03
               1.1076871343188607E-03
               3.5389294805952950E-03
               8.7954044914374536E-04
              -3.8464071541720120E-03
               1.0904566154675400E-02
              -1.3142490728908924E-02
              -4.7205732624969025E-04
               1.6466532463161556E-05
              -1.6866651671530934E-03
              -8.2301512403781668E-03
              -2.9796014298025947E-03
               8.3251226557665130E-03
               3.6513226120910773E-04
               3.5036169919655359E-03
              -8.9494731806753387E-03
              -1.0221086207202369E-02
               1.5255483871348832E-02
               3.4200251904914904E-03
              -1.2013755136535782E-05
              -1.5158152419247118E-03
              -1.4943278223941536E-02
               7.9053690923966552E-03
               1.7504607467794765E-03
              -1.3668251960466237E-02
               1.1433393426379429E-03
              -5.8070933696830578E-03
              -3.7690391135472294E-03
              -3.0509363174413911E-03
               1.3014629334956056E-02
               4.0541989467095545E-04
              -2.2678382228273923E-03
              -6.1722392656746467E-03
              -6.6335192665761095E-04
              -6.5367783764099354E-04
               3.1348105020046848E-03
               1.2833605369776792E-03
               3.5997182312013012E-03
              -5.0214444139808914E-04
               1.7413853061515236E-03
               1.0211147571612296E-02
               4.0719858677259798E-03
              -6.5150851929097519E-03
               1.0399554981501049E-03
               5.2460976541294380E-03
              -2.8047958755906340E-03
              -1.5315681713556617E-03
               1.0635242218150787E-02
              -5.9932984774937730E-03
              -1.3189924312159561E-02
               2.0169652512731485E-03
               4.3876492914491447E-03
              -5.6272353462968839E-04
              -3.8550121186265425E-05
              -1.0526210042669341E-03
              -5.5452405650149878E-03
               5.9860441676155938E-04
               2.9806424340498927E-03
              -2.6469741909524972E-03
               8.4882598824656853E-03
               6.4986657279484533E-04
              -9.9746054294363551E-05
               3.1742562451873729E-03
              -3.3002876906605486E-03
              -2.9860209905212803E-03
               2.5937991260779557E-03
               3.9676965270246979E-03
              -6.1212549436312719E-04
              -3.0013207543733812E-04
              -1.8889367599317140E-03
         &END THERMOSTAT_ENERGY
         &RNG_INIT
Wiener process for Thermostat # 1        1 F T T   1.0570193072987602E-01        2554248455.0        3733268398.0        2096963647.0         915983833.0        1292997779.0         989563289.0             12345.0             12345.0             12345.0             12345.0             12345.0             12345.0             12345.0             12345.0             12345.0             12345.0             12345.0             12345.0
Wiener process for Thermostat # 2        1 F T T  -5.0729818522276993E-01         187792199.0        1332764939.0        1272087322.0         282682701.0         988697858.0        4086000388.0        3692455944.0        1366884236.0        2968912127.0         335948734.0        4161675175.0         475798818.0        3692455944.0        1366884236.0        2968912127.0         335948734.0        4161675175.0         475798818.0
Wiener process for Thermostat # 3        1 F T T   8.9774137220556466E-02        3755061031.0        1753083868.0        1351179932.0         343881147.0        3312142877.0        1244557929.0        1015873554.0        1310354410.0        2249465273.0         994084013.0        2912484720.0        3876682925.0        1015873554.0        1310354410.0        2249465273.0         994084013.0        2912484720.0        3876682925.0
Wiener process for Thermostat # 4        1 F T T   2.1447125495896904E-01        2430503636.0         902227617.0        3039217662.0         205693714.0        2375800914.0        4220709598.0        2338701263.0        1119171942.0        2570676563.0         317077452.0        3194180850.0         618832124.0        2338701263.0        1119171942.0        2570676563.0         317077452.0        3194180850.0         618832124.0
Wiener process for Thermostat # 5        1 F T T  -7.4974817695318574E-01        3949927612.0        4293465109.0         224208328.0         677588237.0        2173092809.0        2514687022.0        1597262096.0        3906379055.0        3312112953.0        1016013135.0        4099474108.0         275305423.0        1597262096.0        3906379055.0        3312112953.0        1016013135.0        4099474108.0         275305423.0
Wiener process for Thermostat # 6        1 F T T  -2.3195632299180402E+00        4147399821.0         968438491.0         174961265.0         382156541.0        3672303660.0        2385050302.0          97147054.0        3131372450.0         829345164.0        3691032523.0        3006063034.0        4259826321.0          97147054.0        3131372450.0         829345164.0        3691032523.0        3006063034.0        4259826321.0
Wiener process for Thermostat # 7        1 F T T  -8.3038096976097500E-03        3725962017.0        3124905816.0        1692649901.0        3685368087.0         990134651.0        3321809881.0         796079799.0        2105258207.0         955365076.0        2923159030.0        4116632677.0        3067683584.0         796079799.0        2105258207.0         955365076.0        2923159030.0        4116632677.0        3067683584.0
Wiener process for Thermostat # 8        1 F T T   7.2955713326517235E-01        1426374835.0        1022225665.0        3431852557.0        2945126969.0        1347790872.0        2047858768.0        3281794178.0        2616230133.0        1457051261.0        2762791137.0        2480527362.0        2282316169.0        3281794178.0        2616230133.0        1457051261.0        2762791137.0        2480527362.0        2282316169.0
Wiener process for Thermostat # 9        1 F T T  -8.3876742673612970E-01        3633457436.0         863053678.0         665967915.0         928783000.0        4027924725.0        3556250224.0        3777646647.0        1837464056.0        4204654757.0         664239048.0        4190510072.0        2959195122.0        3777646647.0        1837464056.0        4204654757.0         664239048.0        4190510072.0        2959195122.0
Wiener process for Thermostat # 10       1 F T T  -6.7138423863751628E-01        3282585865.0         909372753.0         488063086.0        2442536289.0         174422437.0         477575080.0        4215590817.0        3862461878.0        1087200967.0        1544910132.0         936383720.0        1611370123.0        4215590817.0        3862461878.0        1087200967.0        1544910132.0         936383720.0        1611370123.0
Wiener process for Thermostat # 11       1 F T T  -7.2169956836733329E-02        3039538231.0          25912629.0        1608189467.0        1823124278.0        2331127605.0        2449500504.0        1683636369.0         362165168.0         814316280.0         869382050.0         980203903.0        2062101717.0        1683636369.0         362165168.0         814316280.0         869382050.0         980203903.0        2062101717.0
Wiener process for Thermostat # 12       1 F T T  -6.7722400494670465E-01        2762226669.0        4262778377.0        2250707948.0        3120407528.0        3704866228.0        1185520965.0         272317999.0         166758548.0         310112982.0         201045826.0        1680231254.0         118290799.0         272317999.0         166758548.0         310112982.0         201045826.0        1680231254.0         118290799.0
Wiener process for Thermostat # 13       1 F T T  -7.3817531449270457E-01        3689403510.0         367299738.0        3636386471.0        1925893934.0        3355800516.0        3520562622.0        2245755202.0        1652682525.0        2865544364.0         721509566.0         209733568.0         592362218.0        2245755202.0        1652682525.0        2865544364.0         721509566.0         209733568.0         592362218.0
Wiener process for Thermostat # 14       1 F T T  -1.1382067441366517E+00        3364395678.0        3315693013.0        2647598954.0        3098747655.0        1899656659.0         516312086.0        3003961408.0        3529909391.0          14538032.0        3603919910.0         566682685.0        1235016484.0        3003961408.0        3529909391.0          14538032.0        3603919910.0         566682685.0        1235016484.0