 # Version information for this restart file 
 # current date 2024-11-29 23:58:47.153
 # current working dir /scratch/hz3883/Week12-IntroAIMD/Runs/Water
 # Program compiled at                              Sat Dec 12 18:27:15 EST 2020
 # Program compiled on                                         cs001.nyu.cluster
 # Program compiled for                                                nyu-intel
 # Source code revision number                                       git:8c64c6e
 &GLOBAL
   PRINT_LEVEL  LOW
   PROJECT_NAME water_aimd_1ps
   RUN_TYPE  MD
   WALLTIME 21600
 &END GLOBAL
 &MOTION
   &MD
     ENSEMBLE  NVT
     STEPS  2000
     TIMESTEP     4.9999999999999994E-01
     STEP_START_VAL  1000
     TIME_START_VAL     4.9999999999999636E+02
     ECONS_START_VAL    -1.1023558357480229E+03
     TEMPERATURE     3.0000000000000000E+02
     &THERMOSTAT
       TYPE  GLE
       REGION  MASSIVE
       &GLE
         NDIM  5
         A_SCALE     1.0000000000000000E+00
         A_LIST     1.8595758612559999E+02    2.7263853498399998E-01    1.1526100454610001E+01   -3.6414578262600003E+01 \
             2.3173375816020001E+02
         A_LIST    -2.7809524712060002E-01    8.5951591808710006E-05    7.2189048017650004E-01   -1.9844539343859999E-01 \
             4.2409257583420001E-01
         A_LIST    -1.4825808131210000E+01   -7.2189048017650004E-01    1.3590902121280000E+00    5.1498896280349999E+00 \
            -9.9949268450990001E+00
         A_LIST    -1.0372189126880000E+01    1.9844539343859999E-01   -5.1498896280349999E+00    2.6661910891169999E+01 \
             1.1507715495310000E+01
         A_LIST     2.1801346360420001E+02   -4.2409257583420001E-01    9.9949268450990001E+00   -1.1507715495310000E+01 \
             3.0958394565589998E+02
         &THERMOSTAT_ENERGY
              -4.0943463964558556E-03
              -7.6080763221096122E-05
              -8.2930486939478013E-04
               7.8444389321006246E-03
              -6.2005128154496575E-03
               6.7654448002721981E-03
               1.6312396854337968E-03
              -6.0272697708225664E-03
               7.4013193367042868E-03
               5.0637841230783470E-03
               9.4842037015494419E-03
              -3.5661226223145616E-03
              -5.7460656783410802E-03
              -5.2830710307640817E-03
               2.7628861916890790E-04
              -4.6123968655348464E-03
               1.1667418550627893E-02
              -3.5453042129318822E-03
               6.5621023870271996E-03
              -6.2683092480208241E-03
               5.1662071243137753E-04
               1.5443262407164070E-03
              -1.0412177011475106E-03
               9.9512921202144335E-04
              -4.2337562831299032E-03
               2.3984690793575876E-03
               1.9097323052732248E-03
               2.5573594812871164E-03
               4.1455781885667113E-03
               8.7839960559022334E-04
              -6.8172653014331921E-03
              -2.3911264154199659E-04
              -1.1176823679203492E-04
               4.8276393467336911E-03
              -1.2015300698809994E-02
               1.1215868350205752E-02
              -1.6662607814406987E-03
               2.7051298439690561E-04
              -5.0475312485074512E-04
              -5.2720990471002913E-03
              -4.0471327667243630E-03
               1.8763156216952156E-03
               2.7714956933333453E-03
               7.3180036897246958E-03
              -4.6737188055146484E-03
               3.7190355279790722E-03
              -2.2824498340889825E-03
               4.3085541465702542E-03
              -1.0554246690167061E-03
              -5.3632443913493467E-03
               2.6864459196598773E-03
              -5.0049367755591687E-03
              -2.4836811655645093E-03
               7.6605071349397534E-03
              -5.1145617776868560E-03
               2.3468564568828597E-03
              -2.7519139061966359E-03
              -4.3131650655893412E-04
              -1.0922904614647580E-03
               5.6299487224415684E-03
               8.4602438167381995E-04
              -1.9084704598015491E-03
               1.4312393901971095E-02
              -4.1261014259204457E-03
               8.2987364115055242E-04
               2.3505921742667028E-05
              -1.0140176655361377E-02
               1.8975879593703016E-03
               1.5433468014838815E-02
               2.4240471616687623E-04
              -1.5046032131932020E-03
              -9.1878541046493123E-03
              -1.3182724626125276E-03
              -1.3545050981072523E-03
              -3.7239671771709237E-03
              -1.0857401956995263E-02
               3.0630490384573389E-03
               1.0331288497539028E-03
               8.8120568314424552E-03
              -8.9575727142660790E-03
               9.5724142623642219E-03
              -7.7985231480101180E-04
               2.0179231859379759E-04
              -1.8278117181376289E-03
               8.7699317490759119E-04
               5.7612927389988512E-03
              -6.1825535615522159E-04
              -1.0586295420017544E-03
               3.3145896835530568E-03
              -1.1011214488855505E-03
               1.6374530119290960E-03
              -7.5279296761655897E-03
               1.1005124800271555E-03
              -3.5253732209361717E-03
              -8.9432427465244036E-03
               4.0930703157599016E-03
               8.1835306647819982E-03
              -1.9805494785060402E-03
               4.4057005121441156E-03
               2.5821484736126481E-04
              -2.3339357281887546E-03
              -7.2970834239505416E-03
              -1.0658385627956479E-03
              -3.8732184602818785E-03
               5.7795413239600255E-03
               5.4741198292607533E-03
               1.5524522534085456E-03
               7.4374856078559192E-04
               2.6121031687978305E-03
              -7.3184025503885532E-03
               2.8690789476868181E-03
              -9.2157210685291124E-04
               2.0824624550721859E-03
               6.0160071442414741E-03
               3.2233215603208443E-03
               5.3469659539851855E-03
              -1.7561263600850155E-02
               4.6149312104186244E-03
               1.6321677362102045E-03
               3.8682638802270538E-03
               4.4004300013578274E-03
               1.4035739392686069E-03
              -2.4135986402859565E-03
              -7.8364936139282797E-04
              -3.6101842425828273E-03
              -8.6687366508290161E-04
               1.6791956241634205E-03
              -1.9359163470148989E-04
              -9.4328646288617188E-04
              -4.7906707701652661E-03
               7.0054188246696284E-05
               6.8187210306822734E-03
              -5.1697783185927545E-03
               8.8621833388649821E-03
               1.9989516533316172E-04
              -3.2858939949759604E-04
              -2.0346580597436891E-03
              -5.8908821665602865E-03
               4.0987187454615001E-03
              -8.9294612429161695E-03
               6.1350625952913251E-03
              -1.8424073112922829E-03
               1.8585214034416517E-02
              -4.6054145279186727E-03
              -1.6999707591410524E-03
               4.0261229923651339E-04
               8.0409097504208649E-03
               1.7431848722841629E-03
               1.5440371494048937E-03
              -4.1043781233465922E-03
              -8.1997630725852907E-03
               1.6079117472086798E-03
               1.9809720326288238E-03
              -2.1665310466781654E-03
               2.5884459548673102E-03
               1.0133372012975346E-03
               5.4484554402885388E-03
               3.4306068195736217E-04
              -4.5603253422544033E-03
               2.6654912139035514E-03
              -6.5175736707784593E-03
              -2.9077129767315878E-03
              -2.1032353783073574E-03
               5.4021753068052552E-04
               3.3473058060182609E-03
               6.5375916187401717E-03
               4.0122560817196454E-03
              -6.0339476746533970E-03
              -1.0840501512745777E-02
               7.4763410311346392E-03
               4.6617510858646652E-04
              -5.4256344258172473E-03
              -8.7581117365990600E-04
               1.0812237926175172E-04
              -5.3860376839069898E-03
               2.4965568157626450E-03
               1.3320210477906448E-03
               5.9706829853050127E-03
              -2.0181295494893989E-03
               3.6586986426299841E-03
              -3.7219987110960334E-03
               1.2615233945783880E-03
               3.9277811020601797E-03
              -8.6805616341995139E-03
               7.5358490529231119E-03
              -3.6162668073803257E-03
               1.1306501891338704E-03
              -6.6365093482542411E-04
              -3.8279095355483808E-03
              -1.4714120949695878E-03
               1.6317458797134722E-03
              -2.2871513358786394E-03
              -4.9580946871270893E-03
               4.0988304008536518E-03
               6.1391655059762152E-03
              -2.3608294325472242E-03
              -5.5884863652849847E-03
               2.7625958221506306E-03
              -2.2300860934180559E-03
              -7.6148307922565791E-04
               1.3980465253646320E-03
              -5.9227248081384805E-03
               1.1251745863406546E-02
              -2.1476243221854219E-03
              -2.8662030655030851E-03
              -3.3170666261347721E-03
              -1.6910170483927223E-03
               2.3594617528296213E-03
               3.1658747782424936E-04
               1.1641970657163493E-03
               6.8041315632257349E-03
              -4.8128142174790604E-04
               3.8749219249258173E-03
              -1.1008026668417419E-02
               2.7480712480822415E-04
               3.9560811459163330E-03
              -4.2681420517870989E-03
               5.4894418483840361E-03
               1.4987497544084911E-04
              -6.8072303838665115E-03
              -2.6231374248984517E-03
               2.3235504610487076E-03
              -9.6041288480757043E-04
               5.8837598978727012E-03
              -2.2374232783857961E-04
              -1.1258298870452511E-03
               1.9202450902532529E-03
               2.7764317965364316E-03
              -3.8350995971014172E-03
               1.5742223016641319E-03
              -6.7732133072660860E-03
               2.5862386693365188E-03
               3.0215977336441537E-03
              -4.3554093122565784E-03
               3.6962700048746612E-03
               1.8885914834872663E-04
              -2.0190700294138567E-03
               1.5732695036485553E-03
               6.2962248878583689E-03
               1.3735562693361746E-03
               6.9148420658284536E-04
              -1.0164380007786619E-02
               4.6421459563681412E-03
               1.4917961864096276E-03
              -2.6852576382900726E-03
               1.9765006818884159E-03
               6.1946155264644949E-03
              -6.8013577759785939E-03
              -7.5492599278393995E-04
               7.2631354608663264E-05
              -1.3644389013955574E-04
              -7.0881041787637628E-05
              -5.8420978203419507E-03
              -3.7755173841000859E-03
               3.3757238600005675E-03
              -2.1578281951115815E-03
               1.0430653855714076E-02
              -3.3388039337273953E-03
               2.8868715631046502E-03
              -8.5539604731255537E-03
               8.5834037836278014E-03
               2.5554603454467843E-03
               3.0101972700777419E-03
               1.4712450614650179E-03
               8.2859513535192032E-03
              -4.5212157089101548E-03
              -2.1033295865495539E-03
              -2.9080758481019836E-03
              -6.7080959521847398E-03
               5.0670951220886315E-03
              -1.1282231621592685E-03
              -3.3435125476342980E-03
               1.4694373753086263E-03
               7.4309188681124143E-03
               2.9970002119180579E-03
               2.0946137891025831E-03
              -2.1640126611375141E-02
               1.3990911247766427E-02
              -3.9842458712955487E-03
               6.0147160819722482E-03
              -3.5767373566849931E-03
               2.6651318321491823E-03
               1.2454357100668096E-02
              -1.8108088716689622E-03
              -1.0014702744246498E-02
              -5.6858651335915623E-03
               3.0925195198395873E-03
              -5.6242522151838184E-03
              -1.9665625703543400E-03
              -3.6166340698849135E-03
               8.9224220378413379E-05
               3.8344544299794029E-03
               8.9847785875992563E-03
              -3.5049502660098523E-03
              -7.1588260691403513E-04
               5.0596640235049386E-03
              -5.3457156419550785E-03
              -1.6817701871898387E-03
              -2.4599425521577862E-03
              -9.2103841174448497E-04
              -2.1989291186459417E-03
               7.4951018006880242E-03
               8.8584480623960296E-04
              -1.5108434426237658E-03
               4.8702317476619341E-03
              -8.5599320593816343E-03
               2.9473725188948786E-03
              -2.1427521204756233E-03
              -3.5815141812326505E-03
               1.1126046203353558E-02
              -4.8802426526143678E-03
              -7.8858714089869060E-03
               2.2508498722038041E-03
               7.9069247092187142E-03
               1.7097333622109901E-03
               6.6647607235711141E-03
               9.6673912501928473E-04
               1.8612377189624980E-03
              -3.3083694882831182E-03
              -6.3663741833138738E-03
               9.1663511417884834E-03
              -6.5538550261427606E-03
              -8.0849409937713140E-03
               1.0647059065370850E-02
              -3.4184383882716616E-03
               2.4298813033115981E-03
               2.4354691756795850E-03
               6.2961050629644823E-03
              -3.8936812979506099E-03
              -4.6807592955898977E-03
              -6.2175060986884032E-03
              -7.5352216720886789E-03
               1.0729788644566165E-02
              -1.2756996153589055E-03
               2.5644191261104607E-03
               1.5708822696596024E-04
               1.6936355782676018E-02
               1.8023704598918394E-03
              -1.0084279237197744E-02
               4.1668456153222105E-03
               7.5890621431617096E-03
              -8.9014986549996959E-03
               8.6997494400778592E-04
               1.9080170358101896E-03
              -8.9433209909125675E-04
              -1.0889890496897316E-02
               4.3335664988571375E-03
              -1.0284501741740879E-03
               4.2565045086717769E-03
              -9.2948574591922279E-05
              -3.2802176079329520E-03
               1.9708387850273252E-03
              -7.2765583516138880E-03
               1.9439459251864681E-03
              -6.1618313519971697E-03
               1.0349163369562205E-02
               7.1857522755442078E-04
              -1.4056705631862155E-03
              -4.5874339713617039E-03
               7.2729952624909378E-03
              -1.1579963164631932E-03
              -3.6240768503360355E-04
              -1.0667797643424322E-02
              -2.8186826001332498E-03
              -5.9777367245608898E-04
               1.3294442902914944E-02
               3.8898513070687950E-03
              -6.7095378861300363E-04
              -3.8343250150225478E-03
              -1.6132409899912106E-04
               1.8712875309763724E-03
              -2.3013286286101614E-03
              -7.3303787431136993E-03
              -5.9684730053546258E-03
               7.2653701883136079E-03
              -1.0119438115394605E-02
               8.6263378183899057E-03
               3.3887394195064929E-03
              -1.0032319937917475E-03
               5.7997883457839444E-04
               1.2620467921543041E-03
              -3.2639641949418435E-04
               1.5399978146834605E-02
              -2.7793476486679711E-03
              -1.4737951776988223E-02
               1.0338772354760327E-02
              -5.1623566649367340E-03
              -4.9538536315963328E-03
              -2.7188053137437505E-03
              -8.9562480063659460E-04
              -6.9179334584605935E-03
               1.2993797691479148E-02
              -4.6544679872243151E-04
              -1.6699788436615700E-03
              -4.8773458558800924E-03
               1.4504275825232263E-03
              -1.8438396819853492E-03
              -8.1894597819592949E-04
               4.8643007280642064E-03
              -1.0086072936190472E-02
               3.0577641733136826E-03
               1.1321950191765500E-02
              -9.5053665441678648E-03
               9.0922847339421353E-03
               7.7366691276623146E-03
              -1.6965889718185958E-03
               2.4578041092608795E-03
               7.6224735914534629E-03
              -9.0986635013245096E-03
               3.1696803327707318E-03
               5.6158348598007654E-04
               8.1330894006678863E-04
              -2.2274610256306816E-03
               4.2477638825387208E-03
              -5.9768971270973050E-03
              -3.1501121636051707E-03
               5.0463422738936340E-03
              -2.0038788436674360E-03
              -3.4355010881441219E-03
               1.0221424721433864E-02
              -1.5492759640622041E-03
               2.4464616403116245E-03
               4.9032985975418783E-06
               3.4888798735186991E-03
              -3.0328241155385695E-04
              -1.9164703581671877E-03
              -8.3214089361817820E-03
               4.8834983896728478E-03
              -2.4648275198295494E-03
               1.0310161096855118E-03
               9.2811244418167117E-03
              -8.8370062459132894E-03
               7.0200286587323018E-05
              -9.8393438905575712E-04
               2.8268174850735188E-03
              -1.0427550197249813E-02
               1.4171206001017114E-03
               4.2546119517738465E-03
               7.7401742744484688E-04
               6.3312456069585113E-03
              -2.4485867840166615E-03
              -8.6927759484923990E-03
               3.4671176472583320E-03
               4.9947692492841259E-03
              -3.3337050579251414E-03
              -6.0029885503043879E-03
               1.4159064030751509E-03
               4.6666947703842250E-03
               3.5990522699354877E-03
              -1.1665610895711784E-03
              -7.0642295403941253E-04
              -2.1896003358987132E-03
               3.4851950285440352E-03
              -2.6570182788365217E-03
              -6.5135783115439156E-03
              -4.2906805451175143E-03
               1.5346290104939517E-02
              -1.6137409690379549E-03
              -1.1360440644669463E-02
              -4.9012108639998487E-03
               4.2331955490331249E-03
              -5.7139998040838091E-03
               3.1997180517341663E-03
              -8.9594139223280085E-04
               5.7942655977381730E-03
               7.6146768750162399E-03
              -2.7214259494344208E-03
              -1.1936737490452318E-03
              -3.1731645867790208E-03
               1.7724297506512983E-03
               2.4700194068698529E-03
               7.6316035876842110E-03
              -3.2080124661020117E-03
              -2.6533782413889107E-03
               5.3755037396683017E-03
               4.8150924174234404E-03
               5.7971225937079656E-03
               1.6994780748576803E-03
              -3.2525938160733259E-03
               4.6819084954930765E-03
              -6.7134150642178467E-03
               3.7619996601243968E-03
               2.3545707502754258E-03
               3.8819963127098467E-03
              -7.3611263231209935E-03
              -9.8553221904406035E-04
              -1.5818931429807130E-03
              -3.5399108764874758E-03
              -1.9315571236352168E-03
              -1.4308085987761445E-03
              -1.1675187866903539E-03
              -1.7330703432718358E-03
               9.8349639836173329E-04
               1.2904318187204672E-02
              -6.7466639573957972E-03
               2.5696485586455941E-03
               1.2773477005939636E-03
              -1.7894838137851721E-04
               2.2026413623035318E-03
               3.7615932004245183E-03
               3.4845080483520076E-03
              -1.6668909065243904E-04
              -5.7986309736280774E-03
              -6.5905642754666332E-04
               1.8146441294368293E-03
              -3.7813173076215881E-03
               1.1892666225170620E-03
               3.0063994315869106E-03
               2.8644789868051365E-03
              -1.7009543661333646E-04
               1.5898294901450347E-03
               1.0915387624486740E-02
              -1.7111948839538062E-02
              -3.7786244657156230E-04
              -6.9358209160691518E-04
               2.3567304805025288E-03
              -9.0791911410186173E-03
               4.9776945587614845E-03
               4.9924797306270209E-03
              -1.5168000964844656E-03
               6.6621697072898238E-03
              -1.3351867261107502E-02
              -4.5267043791142412E-03
               8.2901865425461067E-03
               1.3165870388803305E-03
               6.3778205422818850E-04
              -6.9130015838212234E-03
              -6.8809213037363086E-03
               4.8958334946649709E-03
              -2.5885552617986810E-03
              -5.9971898631059600E-03
               6.5114277718165102E-04
              -3.7952098039624898E-03
              -1.7996592765657082E-03
               3.4798350019327462E-03
               4.5594760050802702E-03
               9.1593011542569398E-04
              -1.6838545673711753E-03
              -9.1503291511176726E-03
              -5.0678494493091274E-04
              -3.8773301297000962E-03
               1.0684055255053833E-03
              -6.9309451552709183E-04
               4.2218038747161395E-03
               3.0490993655863875E-03
              -1.1835134227657241E-03
               7.5895657670438533E-03
               2.3087879331610945E-03
              -6.7492014561527404E-03
              -1.0912290567794830E-03
               3.4368377053238339E-03
              -4.2447681403032953E-03
               2.4122454886254629E-04
               4.7046161712573486E-03
               1.4602754759778346E-03
              -1.2936532600839240E-02
               4.1724186288022297E-03
               3.3917895117428144E-03
              -2.4816052088476644E-03
               6.8977459331344957E-04
              -1.2529080827346558E-03
              -1.0656163608496129E-03
              -1.9959989241622044E-03
               1.1422717524946802E-02
              -3.9284799555652263E-03
               8.9680217450368513E-03
               1.3104308842615923E-03
               9.6641965642857246E-05
              -4.0093852090744434E-03
              -4.2524113832007023E-03
              -6.0461203256633005E-03
              -9.0494505441855852E-04
               9.7221679811481734E-03
               3.9592060348557648E-03
              -3.4216184901469946E-03
               2.0844254600038601E-03
         &END THERMOSTAT_ENERGY
         &RNG_INIT
Wiener process for Thermostat # 1        1 F T T  -9.8236738167888460E-01         226733040.0        4248387519.0        1164353849.0        2758509449.0        3644127687.0        1764793484.0             12345.0             12345.0             12345.0             12345.0             12345.0             12345.0             12345.0             12345.0             12345.0             12345.0             12345.0             12345.0
Wiener process for Thermostat # 2        1 F T T  -1.4171306107827426E+00        1528154308.0        2775625301.0         197130159.0        1452211673.0        1835562137.0        1983376171.0        3692455944.0        1366884236.0        2968912127.0         335948734.0        4161675175.0         475798818.0        3692455944.0        1366884236.0        2968912127.0         335948734.0        4161675175.0         475798818.0
Wiener process for Thermostat # 3        1 F T T   8.6049543281786645E-01        2248570378.0        1724762616.0          52903713.0        3229622658.0        3199004837.0        4241126217.0        1015873554.0        1310354410.0        2249465273.0         994084013.0        2912484720.0        3876682925.0        1015873554.0        1310354410.0        2249465273.0         994084013.0        2912484720.0        3876682925.0
Wiener process for Thermostat # 4        1 F T T  -1.5460863137690717E+00         957380376.0         510326667.0        2247033635.0        2033071685.0        3054261466.0        3462352516.0        2338701263.0        1119171942.0        2570676563.0         317077452.0        3194180850.0         618832124.0        2338701263.0        1119171942.0        2570676563.0         317077452.0        3194180850.0         618832124.0
Wiener process for Thermostat # 5        1 F T T   1.5428690481661575E-01        4203301200.0         738999836.0        1485820986.0          20648636.0        2223680357.0        4294941489.0        1597262096.0        3906379055.0        3312112953.0        1016013135.0        4099474108.0         275305423.0        1597262096.0        3906379055.0        3312112953.0        1016013135.0        4099474108.0         275305423.0
Wiener process for Thermostat # 6        1 F T T   7.0411917217518150E-01        1265311014.0        3687607523.0        1792102642.0         142025920.0         459804801.0        1211121065.0          97147054.0        3131372450.0         829345164.0        3691032523.0        3006063034.0        4259826321.0          97147054.0        3131372450.0         829345164.0        3691032523.0        3006063034.0        4259826321.0
Wiener process for Thermostat # 7        1 F T T  -9.5744195640119531E-02        4040223344.0        4246262317.0         329086624.0          28777921.0        2946509694.0        1489700490.0         796079799.0        2105258207.0         955365076.0        2923159030.0        4116632677.0        3067683584.0         796079799.0        2105258207.0         955365076.0        2923159030.0        4116632677.0        3067683584.0
Wiener process for Thermostat # 8        1 F T T  -1.2413826789147817E-01         252045112.0        2848200345.0         154646410.0        1271924195.0        1873079261.0        3351978939.0        3281794178.0        2616230133.0        1457051261.0        2762791137.0        2480527362.0        2282316169.0        3281794178.0        2616230133.0        1457051261.0        2762791137.0        2480527362.0        2282316169.0
Wiener process for Thermostat # 9        1 F T T   1.0331244080464512E+00        3784506675.0        1914172684.0        3527875272.0        1610827989.0        3855196701.0        1117597481.0        3777646647.0        1837464056.0        4204654757.0         664239048.0        4190510072.0        2959195122.0        3777646647.0        1837464056.0        4204654757.0         664239048.0        4190510072.0        2959195122.0
Wiener process for Thermostat # 10       1 F T T   2.1466585360569199E-01        3057685686.0        2869029583.0         411221469.0        2821893460.0         322924656.0        1143227575.0        4215590817.0        3862461878.0        1087200967.0        1544910132.0         936383720.0        1611370123.0        4215590817.0        3862461878.0        1087200967.0        1544910132.0         936383720.0        1611370123.0
Wiener process for Thermostat # 11       1 F T T  -4.4132046785776799E-02        1554543736.0        2717576499.0        4135075403.0        2618383353.0         642871762.0         249586537.0        1683636369.0         362165168.0         814316280.0         869382050.0         980203903.0        2062101717.0        1683636369.0         362165168.0         814316280.0         869382050.0         980203903.0        2062101717.0
Wiener process for Thermostat # 12       1 F T T  -5.6161533877704317E-01        1770324141.0        3770017049.0         190859559.0         764828178.0        2918138424.0         736540625.0         272317999.0         166758548.0         310112982.0         201045826.0        1680231254.0         118290799.0         272317999.0         166758548.0         310112982.0         201045826.0        1680231254.0         118290799.0
Wiener process for Thermostat # 13       1 F T T   9.7554409384929153E-01        3627045108.0        1898589428.0        2752141753.0          85759421.0        2499273175.0        1137986601.0        2245755202.0        1652682525.0        2865544364.0         721509566.0         209733568.0         592362218.0        2245755202.0        1652682525.0        2865544364.0         721509566.0         209733568.0         592362218.0
Wiener process for Thermostat # 14       1 F T T   1.0647643612361006E+00        2907287648.0        2703557765.0        1318952540.0         278138330.0        3506335210.0        2737196551.0        3003961408.0        3529909391.0          14538032.0        3603919910.0         566682685.0        1235016484.0        3003961408.0        3529909391.0          14538032.0        3603919910.0         566682685.0        1235016484.0